*SPEF "ieee 1481-1999"
*DESIGN "syn_fifo"
*DATE "11:11:11 Fri 11 11, 1111"
*VENDOR "OpenRCX"
*PROGRAM "Parallel Extraction"
*VERSION "1.0"
*DESIGN_FLOW "NAME_SCOPE LOCAL" "PIN_CAP NONE"
*DIVIDER /
*DELIMITER :
*BUS_DELIMITER []
*T_UNIT 1 NS
*C_UNIT 1 PF
*R_UNIT 1 OHM
*L_UNIT 1 HENRY

*NAME_MAP
*3 almost_empty
*4 almost_full
*5 clk
*6 din[0]
*7 din[1]
*8 din[2]
*9 din[3]
*10 din[4]
*11 din[5]
*12 din[6]
*13 din[7]
*14 dout[0]
*15 dout[1]
*16 dout[2]
*17 dout[3]
*18 dout[4]
*19 dout[5]
*20 dout[6]
*21 dout[7]
*22 empty
*23 full
*24 overrun
*25 rd
*26 rst
*27 underrun
*28 unused[0]
*29 unused[1]
*30 unused[2]
*31 unused[3]
*32 used[0]
*33 used[1]
*34 used[2]
*35 used[3]
*36 wr
*37 _000_
*38 _001_
*39 _002_
*40 _003_
*41 _004_
*42 _005_
*43 _006_
*44 _007_
*45 _008_
*46 _009_
*47 _010_
*48 _011_
*49 _012_
*50 _013_
*51 _014_
*52 _015_
*53 _016_
*54 _017_
*55 _018_
*56 _019_
*57 _020_
*58 _021_
*59 _022_
*60 _023_
*61 _024_
*62 _025_
*63 _026_
*64 _027_
*65 _028_
*66 _029_
*67 _030_
*68 _031_
*69 _032_
*70 _033_
*71 _034_
*72 _035_
*73 _036_
*74 _037_
*75 _038_
*76 _039_
*77 _040_
*78 _041_
*79 _042_
*80 _043_
*81 _044_
*82 _045_
*83 _046_
*84 _047_
*85 _048_
*86 _049_
*87 _050_
*88 _051_
*89 _052_
*90 _053_
*91 _054_
*92 _055_
*93 _056_
*94 _057_
*95 _058_
*96 _059_
*97 _060_
*98 _061_
*99 _062_
*100 _063_
*101 _064_
*102 _065_
*103 _066_
*104 _067_
*105 _068_
*106 _069_
*107 _070_
*108 _071_
*109 _072_
*110 _073_
*111 _074_
*112 _075_
*113 _076_
*114 _077_
*115 _078_
*116 _079_
*117 _080_
*118 _081_
*119 _082_
*120 _083_
*121 _084_
*122 _085_
*123 _086_
*124 _087_
*125 _088_
*126 _089_
*127 _090_
*128 _091_
*129 _092_
*130 _093_
*131 _094_
*132 _095_
*133 _096_
*134 _097_
*135 _098_
*136 _099_
*137 _100_
*138 _101_
*139 _102_
*140 _103_
*141 _104_
*142 _105_
*143 _106_
*144 _107_
*145 _108_
*146 _109_
*147 _110_
*148 _111_
*149 _112_
*150 _113_
*151 _114_
*152 _115_
*153 _116_
*154 _117_
*155 _118_
*156 _119_
*157 _120_
*158 _121_
*159 _122_
*160 _123_
*161 _124_
*162 _125_
*163 _126_
*164 _127_
*165 _128_
*166 _129_
*167 _130_
*168 _131_
*169 _132_
*170 _133_
*171 _134_
*172 _135_
*173 _136_
*174 _137_
*175 _138_
*176 _139_
*177 _140_
*178 _141_
*179 _142_
*180 _143_
*181 _144_
*182 _145_
*183 _146_
*184 _147_
*185 _148_
*186 _149_
*187 _150_
*188 _151_
*189 _152_
*190 _153_
*191 _154_
*192 _155_
*193 _156_
*194 _157_
*195 _158_
*196 _159_
*197 _160_
*198 _161_
*199 _162_
*200 _163_
*201 _164_
*202 _165_
*203 _166_
*204 _167_
*205 _168_
*206 _169_
*207 _170_
*208 _171_
*209 _172_
*210 _173_
*211 _174_
*212 _175_
*213 _176_
*214 _177_
*215 _178_
*216 _179_
*217 _180_
*218 _181_
*219 _182_
*220 _183_
*221 _184_
*222 _185_
*223 _186_
*224 _187_
*225 _188_
*226 _189_
*227 _190_
*228 _191_
*229 _192_
*230 _193_
*231 _194_
*232 _195_
*233 _196_
*234 _197_
*235 _198_
*236 _199_
*237 _200_
*238 _201_
*239 _202_
*240 _203_
*241 _204_
*242 _205_
*243 _206_
*244 _207_
*245 _208_
*246 _209_
*247 _210_
*248 _211_
*249 _212_
*250 _213_
*251 _214_
*252 _215_
*253 _216_
*254 _217_
*255 _218_
*256 _219_
*257 _220_
*258 _221_
*259 _222_
*260 _223_
*261 _224_
*262 _225_
*263 _226_
*264 _227_
*265 _228_
*266 _229_
*267 _230_
*268 _231_
*269 _232_
*270 _233_
*271 _234_
*272 _235_
*273 _236_
*274 _237_
*275 _238_
*276 _239_
*277 _240_
*278 _241_
*279 _242_
*280 _243_
*281 _244_
*282 _245_
*283 _246_
*284 _247_
*285 _248_
*286 _249_
*287 _250_
*288 _251_
*289 _252_
*290 _253_
*291 _254_
*292 _255_
*293 _256_
*294 _257_
*295 _258_
*296 _259_
*297 _260_
*298 _261_
*299 _262_
*300 _263_
*301 _264_
*302 _265_
*303 _266_
*304 _267_
*305 _268_
*306 _269_
*307 _270_
*308 _271_
*309 _272_
*310 _273_
*311 _274_
*312 _275_
*313 _276_
*314 _277_
*315 _278_
*316 _279_
*317 _280_
*318 _281_
*319 _282_
*320 _283_
*321 _284_
*322 _285_
*323 _286_
*324 _287_
*325 _288_
*326 _289_
*327 _290_
*328 clknet_0_clk
*329 clknet_3_0__leaf_clk
*330 clknet_3_1__leaf_clk
*331 clknet_3_2__leaf_clk
*332 clknet_3_3__leaf_clk
*333 clknet_3_4__leaf_clk
*334 clknet_3_5__leaf_clk
*335 clknet_3_6__leaf_clk
*336 clknet_3_7__leaf_clk
*337 fifo_mem\[0\]\[0\]
*338 fifo_mem\[0\]\[1\]
*339 fifo_mem\[0\]\[2\]
*340 fifo_mem\[0\]\[3\]
*341 fifo_mem\[0\]\[4\]
*342 fifo_mem\[0\]\[5\]
*343 fifo_mem\[0\]\[6\]
*344 fifo_mem\[0\]\[7\]
*345 fifo_mem\[1\]\[0\]
*346 fifo_mem\[1\]\[1\]
*347 fifo_mem\[1\]\[2\]
*348 fifo_mem\[1\]\[3\]
*349 fifo_mem\[1\]\[4\]
*350 fifo_mem\[1\]\[5\]
*351 fifo_mem\[1\]\[6\]
*352 fifo_mem\[1\]\[7\]
*353 fifo_mem\[2\]\[0\]
*354 fifo_mem\[2\]\[1\]
*355 fifo_mem\[2\]\[2\]
*356 fifo_mem\[2\]\[3\]
*357 fifo_mem\[2\]\[4\]
*358 fifo_mem\[2\]\[5\]
*359 fifo_mem\[2\]\[6\]
*360 fifo_mem\[2\]\[7\]
*361 fifo_mem\[3\]\[0\]
*362 fifo_mem\[3\]\[1\]
*363 fifo_mem\[3\]\[2\]
*364 fifo_mem\[3\]\[3\]
*365 fifo_mem\[3\]\[4\]
*366 fifo_mem\[3\]\[5\]
*367 fifo_mem\[3\]\[6\]
*368 fifo_mem\[3\]\[7\]
*369 fifo_mem\[4\]\[0\]
*370 fifo_mem\[4\]\[1\]
*371 fifo_mem\[4\]\[2\]
*372 fifo_mem\[4\]\[3\]
*373 fifo_mem\[4\]\[4\]
*374 fifo_mem\[4\]\[5\]
*375 fifo_mem\[4\]\[6\]
*376 fifo_mem\[4\]\[7\]
*377 fifo_mem\[5\]\[0\]
*378 fifo_mem\[5\]\[1\]
*379 fifo_mem\[5\]\[2\]
*380 fifo_mem\[5\]\[3\]
*381 fifo_mem\[5\]\[4\]
*382 fifo_mem\[5\]\[5\]
*383 fifo_mem\[5\]\[6\]
*384 fifo_mem\[5\]\[7\]
*385 fifo_mem\[6\]\[0\]
*386 fifo_mem\[6\]\[1\]
*387 fifo_mem\[6\]\[2\]
*388 fifo_mem\[6\]\[3\]
*389 fifo_mem\[6\]\[4\]
*390 fifo_mem\[6\]\[5\]
*391 fifo_mem\[6\]\[6\]
*392 fifo_mem\[6\]\[7\]
*393 fifo_mem\[7\]\[0\]
*394 fifo_mem\[7\]\[1\]
*395 fifo_mem\[7\]\[2\]
*396 fifo_mem\[7\]\[3\]
*397 fifo_mem\[7\]\[4\]
*398 fifo_mem\[7\]\[5\]
*399 fifo_mem\[7\]\[6\]
*400 fifo_mem\[7\]\[7\]
*401 net1
*402 net10
*403 net100
*404 net101
*405 net102
*406 net103
*407 net104
*408 net105
*409 net106
*410 net107
*411 net108
*412 net109
*413 net11
*414 net12
*415 net13
*416 net14
*417 net15
*418 net16
*419 net17
*420 net18
*421 net19
*422 net2
*423 net20
*424 net21
*425 net22
*426 net23
*427 net24
*428 net25
*429 net26
*430 net27
*431 net28
*432 net29
*433 net3
*434 net30
*435 net31
*436 net32
*437 net33
*438 net34
*439 net35
*440 net36
*441 net37
*442 net38
*443 net39
*444 net4
*445 net40
*446 net41
*447 net42
*448 net43
*449 net44
*450 net45
*451 net46
*452 net47
*453 net48
*454 net49
*455 net5
*456 net50
*457 net51
*458 net52
*459 net53
*460 net54
*461 net55
*462 net56
*463 net57
*464 net58
*465 net59
*466 net6
*467 net60
*468 net61
*469 net62
*470 net63
*471 net64
*472 net65
*473 net66
*474 net67
*475 net68
*476 net69
*477 net7
*478 net70
*479 net71
*480 net72
*481 net73
*482 net74
*483 net75
*484 net76
*485 net77
*486 net78
*487 net79
*488 net8
*489 net80
*490 net81
*491 net82
*492 net83
*493 net84
*494 net85
*495 net86
*496 net87
*497 net88
*498 net89
*499 net9
*500 net90
*501 net91
*502 net92
*503 net93
*504 net94
*505 net95
*506 net96
*507 net97
*508 net98
*509 net99
*510 rd_ptr\[0\]
*511 rd_ptr\[1\]
*512 rd_ptr\[2\]
*513 rd_ptr\[3\]
*514 wr_ptr\[0\]
*515 wr_ptr\[1\]
*516 wr_ptr\[2\]
*517 wr_ptr\[3\]
*518 FILLER_0_0_102
*519 FILLER_0_0_113
*520 FILLER_0_0_132
*521 FILLER_0_0_137
*522 FILLER_0_0_14
*523 FILLER_0_0_156
*524 FILLER_0_0_169
*525 FILLER_0_0_177
*526 FILLER_0_0_182
*527 FILLER_0_0_186
*528 FILLER_0_0_26
*529 FILLER_0_0_29
*530 FILLER_0_0_3
*531 FILLER_0_0_37
*532 FILLER_0_0_42
*533 FILLER_0_0_46
*534 FILLER_0_0_50
*535 FILLER_0_0_57
*536 FILLER_0_0_65
*537 FILLER_0_0_69
*538 FILLER_0_0_7
*539 FILLER_0_0_81
*540 FILLER_0_0_85
*541 FILLER_0_10_148
*542 FILLER_0_10_15
*543 FILLER_0_10_154
*544 FILLER_0_10_174
*545 FILLER_0_10_178
*546 FILLER_0_10_19
*547 FILLER_0_10_190
*548 FILLER_0_10_194
*549 FILLER_0_10_29
*550 FILLER_0_10_3
*551 FILLER_0_10_35
*552 FILLER_0_10_69
*553 FILLER_0_10_75
*554 FILLER_0_10_83
*555 FILLER_0_10_85
*556 FILLER_0_10_97
*557 FILLER_0_11_101
*558 FILLER_0_11_109
*559 FILLER_0_11_120
*560 FILLER_0_11_124
*561 FILLER_0_11_128
*562 FILLER_0_11_15
*563 FILLER_0_11_155
*564 FILLER_0_11_167
*565 FILLER_0_11_169
*566 FILLER_0_11_177
*567 FILLER_0_11_23
*568 FILLER_0_11_3
*569 FILLER_0_11_54
*570 FILLER_0_11_82
*571 FILLER_0_11_88
*572 FILLER_0_12_116
*573 FILLER_0_12_120
*574 FILLER_0_12_15
*575 FILLER_0_12_150
*576 FILLER_0_12_176
*577 FILLER_0_12_193
*578 FILLER_0_12_27
*579 FILLER_0_12_29
*580 FILLER_0_12_3
*581 FILLER_0_12_74
*582 FILLER_0_12_82
*583 FILLER_0_13_113
*584 FILLER_0_13_121
*585 FILLER_0_13_146
*586 FILLER_0_13_177
*587 FILLER_0_13_181
*588 FILLER_0_13_3
*589 FILLER_0_13_33
*590 FILLER_0_13_37
*591 FILLER_0_13_54
*592 FILLER_0_13_57
*593 FILLER_0_13_76
*594 FILLER_0_13_84
*595 FILLER_0_13_9
*596 FILLER_0_13_90
*597 FILLER_0_14_117
*598 FILLER_0_14_124
*599 FILLER_0_14_137
*600 FILLER_0_14_158
*601 FILLER_0_14_170
*602 FILLER_0_14_174
*603 FILLER_0_14_25
*604 FILLER_0_14_29
*605 FILLER_0_14_3
*606 FILLER_0_14_50
*607 FILLER_0_14_56
*608 FILLER_0_14_68
*609 FILLER_0_14_76
*610 FILLER_0_14_80
*611 FILLER_0_14_85
*612 FILLER_0_14_99
*613 FILLER_0_15_110
*614 FILLER_0_15_149
*615 FILLER_0_15_169
*616 FILLER_0_15_182
*617 FILLER_0_15_21
*618 FILLER_0_15_52
*619 FILLER_0_15_57
*620 FILLER_0_15_67
*621 FILLER_0_15_9
*622 FILLER_0_15_98
*623 FILLER_0_16_10
*624 FILLER_0_16_120
*625 FILLER_0_16_148
*626 FILLER_0_16_167
*627 FILLER_0_16_193
*628 FILLER_0_16_24
*629 FILLER_0_16_29
*630 FILLER_0_16_3
*631 FILLER_0_16_52
*632 FILLER_0_16_83
*633 FILLER_0_16_94
*634 FILLER_0_17_111
*635 FILLER_0_17_120
*636 FILLER_0_17_134
*637 FILLER_0_17_140
*638 FILLER_0_17_150
*639 FILLER_0_17_164
*640 FILLER_0_17_183
*641 FILLER_0_17_23
*642 FILLER_0_17_34
*643 FILLER_0_17_45
*644 FILLER_0_17_53
*645 FILLER_0_17_60
*646 FILLER_0_17_68
*647 FILLER_0_17_74
*648 FILLER_0_18_108
*649 FILLER_0_18_11
*650 FILLER_0_18_116
*651 FILLER_0_18_134
*652 FILLER_0_18_15
*653 FILLER_0_18_165
*654 FILLER_0_18_175
*655 FILLER_0_18_27
*656 FILLER_0_18_3
*657 FILLER_0_18_45
*658 FILLER_0_18_71
*659 FILLER_0_18_83
*660 FILLER_0_18_85
*661 FILLER_0_18_89
*662 FILLER_0_19_111
*663 FILLER_0_19_113
*664 FILLER_0_19_125
*665 FILLER_0_19_156
*666 FILLER_0_19_167
*667 FILLER_0_19_169
*668 FILLER_0_19_3
*669 FILLER_0_19_66
*670 FILLER_0_19_7
*671 FILLER_0_19_70
*672 FILLER_0_19_87
*673 FILLER_0_19_99
*674 FILLER_0_1_129
*675 FILLER_0_1_13
*676 FILLER_0_1_155
*677 FILLER_0_1_167
*678 FILLER_0_1_169
*679 FILLER_0_1_181
*680 FILLER_0_1_193
*681 FILLER_0_1_25
*682 FILLER_0_1_29
*683 FILLER_0_1_57
*684 FILLER_0_1_63
*685 FILLER_0_1_67
*686 FILLER_0_1_77
*687 FILLER_0_1_87
*688 FILLER_0_20_103
*689 FILLER_0_20_122
*690 FILLER_0_20_134
*691 FILLER_0_20_141
*692 FILLER_0_20_147
*693 FILLER_0_20_15
*694 FILLER_0_20_177
*695 FILLER_0_20_26
*696 FILLER_0_20_37
*697 FILLER_0_20_7
*698 FILLER_0_20_81
*699 FILLER_0_20_85
*700 FILLER_0_21_110
*701 FILLER_0_21_130
*702 FILLER_0_21_135
*703 FILLER_0_21_139
*704 FILLER_0_21_147
*705 FILLER_0_21_153
*706 FILLER_0_21_166
*707 FILLER_0_21_169
*708 FILLER_0_21_192
*709 FILLER_0_21_3
*710 FILLER_0_21_43
*711 FILLER_0_21_48
*712 FILLER_0_21_76
*713 FILLER_0_21_86
*714 FILLER_0_22_101
*715 FILLER_0_22_118
*716 FILLER_0_22_126
*717 FILLER_0_22_150
*718 FILLER_0_22_168
*719 FILLER_0_22_175
*720 FILLER_0_22_185
*721 FILLER_0_22_194
*722 FILLER_0_22_26
*723 FILLER_0_22_74
*724 FILLER_0_22_80
*725 FILLER_0_23_10
*726 FILLER_0_23_122
*727 FILLER_0_23_166
*728 FILLER_0_23_3
*729 FILLER_0_23_38
*730 FILLER_0_23_55
*731 FILLER_0_23_57
*732 FILLER_0_23_83
*733 FILLER_0_23_87
*734 FILLER_0_24_13
*735 FILLER_0_24_137
*736 FILLER_0_24_157
*737 FILLER_0_24_170
*738 FILLER_0_24_18
*739 FILLER_0_24_182
*740 FILLER_0_24_186
*741 FILLER_0_24_26
*742 FILLER_0_24_29
*743 FILLER_0_24_41
*744 FILLER_0_24_68
*745 FILLER_0_24_80
*746 FILLER_0_24_85
*747 FILLER_0_24_9
*748 FILLER_0_24_97
*749 FILLER_0_25_111
*750 FILLER_0_25_144
*751 FILLER_0_25_159
*752 FILLER_0_25_167
*753 FILLER_0_25_169
*754 FILLER_0_25_177
*755 FILLER_0_25_191
*756 FILLER_0_25_3
*757 FILLER_0_25_33
*758 FILLER_0_25_55
*759 FILLER_0_25_57
*760 FILLER_0_25_61
*761 FILLER_0_25_71
*762 FILLER_0_25_90
*763 FILLER_0_26_111
*764 FILLER_0_26_122
*765 FILLER_0_26_15
*766 FILLER_0_26_160
*767 FILLER_0_26_174
*768 FILLER_0_26_19
*769 FILLER_0_26_29
*770 FILLER_0_26_3
*771 FILLER_0_26_73
*772 FILLER_0_27_104
*773 FILLER_0_27_137
*774 FILLER_0_27_146
*775 FILLER_0_27_15
*776 FILLER_0_27_193
*777 FILLER_0_27_27
*778 FILLER_0_27_3
*779 FILLER_0_27_55
*780 FILLER_0_27_57
*781 FILLER_0_27_76
*782 FILLER_0_27_92
*783 FILLER_0_28_106
*784 FILLER_0_28_112
*785 FILLER_0_28_124
*786 FILLER_0_28_133
*787 FILLER_0_28_139
*788 FILLER_0_28_141
*789 FILLER_0_28_15
*790 FILLER_0_28_153
*791 FILLER_0_28_165
*792 FILLER_0_28_170
*793 FILLER_0_28_182
*794 FILLER_0_28_188
*795 FILLER_0_28_194
*796 FILLER_0_28_27
*797 FILLER_0_28_29
*798 FILLER_0_28_3
*799 FILLER_0_28_33
*800 FILLER_0_28_37
*801 FILLER_0_28_45
*802 FILLER_0_28_56
*803 FILLER_0_28_68
*804 FILLER_0_28_73
*805 FILLER_0_28_77
*806 FILLER_0_28_81
*807 FILLER_0_28_94
*808 FILLER_0_29_122
*809 FILLER_0_29_130
*810 FILLER_0_29_15
*811 FILLER_0_29_154
*812 FILLER_0_29_166
*813 FILLER_0_29_169
*814 FILLER_0_29_181
*815 FILLER_0_29_27
*816 FILLER_0_29_3
*817 FILLER_0_29_39
*818 FILLER_0_29_47
*819 FILLER_0_29_53
*820 FILLER_0_2_108
*821 FILLER_0_2_114
*822 FILLER_0_2_118
*823 FILLER_0_2_124
*824 FILLER_0_2_133
*825 FILLER_0_2_139
*826 FILLER_0_2_15
*827 FILLER_0_2_161
*828 FILLER_0_2_173
*829 FILLER_0_2_185
*830 FILLER_0_2_27
*831 FILLER_0_2_3
*832 FILLER_0_2_36
*833 FILLER_0_2_59
*834 FILLER_0_30_122
*835 FILLER_0_30_161
*836 FILLER_0_30_173
*837 FILLER_0_30_185
*838 FILLER_0_30_193
*839 FILLER_0_30_21
*840 FILLER_0_30_27
*841 FILLER_0_30_29
*842 FILLER_0_30_37
*843 FILLER_0_30_80
*844 FILLER_0_30_9
*845 FILLER_0_30_94
*846 FILLER_0_31_128
*847 FILLER_0_31_133
*848 FILLER_0_31_15
*849 FILLER_0_31_153
*850 FILLER_0_31_165
*851 FILLER_0_31_169
*852 FILLER_0_31_181
*853 FILLER_0_31_189
*854 FILLER_0_31_27
*855 FILLER_0_31_3
*856 FILLER_0_31_39
*857 FILLER_0_31_44
*858 FILLER_0_31_57
*859 FILLER_0_31_66
*860 FILLER_0_31_72
*861 FILLER_0_31_77
*862 FILLER_0_31_94
*863 FILLER_0_32_110
*864 FILLER_0_32_119
*865 FILLER_0_32_127
*866 FILLER_0_32_135
*867 FILLER_0_32_139
*868 FILLER_0_32_141
*869 FILLER_0_32_15
*870 FILLER_0_32_153
*871 FILLER_0_32_161
*872 FILLER_0_32_167
*873 FILLER_0_32_169
*874 FILLER_0_32_181
*875 FILLER_0_32_23
*876 FILLER_0_32_27
*877 FILLER_0_32_29
*878 FILLER_0_32_3
*879 FILLER_0_32_41
*880 FILLER_0_32_51
*881 FILLER_0_32_55
*882 FILLER_0_32_57
*883 FILLER_0_32_67
*884 FILLER_0_32_79
*885 FILLER_0_32_83
*886 FILLER_0_32_85
*887 FILLER_0_3_100
*888 FILLER_0_3_129
*889 FILLER_0_3_141
*890 FILLER_0_3_155
*891 FILLER_0_3_167
*892 FILLER_0_3_169
*893 FILLER_0_3_177
*894 FILLER_0_3_181
*895 FILLER_0_3_3
*896 FILLER_0_3_36
*897 FILLER_0_3_46
*898 FILLER_0_3_55
*899 FILLER_0_3_66
*900 FILLER_0_3_75
*901 FILLER_0_3_85
*902 FILLER_0_4_107
*903 FILLER_0_4_115
*904 FILLER_0_4_138
*905 FILLER_0_4_148
*906 FILLER_0_4_15
*907 FILLER_0_4_154
*908 FILLER_0_4_174
*909 FILLER_0_4_3
*910 FILLER_0_4_56
*911 FILLER_0_4_64
*912 FILLER_0_4_76
*913 FILLER_0_4_85
*914 FILLER_0_4_95
*915 FILLER_0_5_104
*916 FILLER_0_5_108
*917 FILLER_0_5_154
*918 FILLER_0_5_163
*919 FILLER_0_5_167
*920 FILLER_0_5_30
*921 FILLER_0_5_42
*922 FILLER_0_5_70
*923 FILLER_0_5_78
*924 FILLER_0_6_10
*925 FILLER_0_6_100
*926 FILLER_0_6_138
*927 FILLER_0_6_172
*928 FILLER_0_6_176
*929 FILLER_0_6_194
*930 FILLER_0_6_22
*931 FILLER_0_6_27
*932 FILLER_0_6_29
*933 FILLER_0_6_3
*934 FILLER_0_6_40
*935 FILLER_0_6_78
*936 FILLER_0_6_91
*937 FILLER_0_7_105
*938 FILLER_0_7_111
*939 FILLER_0_7_113
*940 FILLER_0_7_12
*941 FILLER_0_7_138
*942 FILLER_0_7_16
*943 FILLER_0_7_166
*944 FILLER_0_7_169
*945 FILLER_0_7_3
*946 FILLER_0_7_51
*947 FILLER_0_7_55
*948 FILLER_0_7_57
*949 FILLER_0_7_80
*950 FILLER_0_7_97
*951 FILLER_0_8_110
*952 FILLER_0_8_118
*953 FILLER_0_8_135
*954 FILLER_0_8_139
*955 FILLER_0_8_141
*956 FILLER_0_8_15
*957 FILLER_0_8_153
*958 FILLER_0_8_170
*959 FILLER_0_8_174
*960 FILLER_0_8_184
*961 FILLER_0_8_194
*962 FILLER_0_8_21
*963 FILLER_0_8_25
*964 FILLER_0_8_29
*965 FILLER_0_8_3
*966 FILLER_0_8_41
*967 FILLER_0_8_65
*968 FILLER_0_8_81
*969 FILLER_0_9_101
*970 FILLER_0_9_109
*971 FILLER_0_9_11
*972 FILLER_0_9_119
*973 FILLER_0_9_149
*974 FILLER_0_9_166
*975 FILLER_0_9_169
*976 FILLER_0_9_192
*977 FILLER_0_9_3
*978 FILLER_0_9_35
*979 FILLER_0_9_43
*980 FILLER_0_9_47
*981 PHY_0
*982 PHY_1
*983 PHY_10
*984 PHY_11
*985 PHY_12
*986 PHY_13
*987 PHY_14
*988 PHY_15
*989 PHY_16
*990 PHY_17
*991 PHY_18
*992 PHY_19
*993 PHY_2
*994 PHY_20
*995 PHY_21
*996 PHY_22
*997 PHY_23
*998 PHY_24
*999 PHY_25
*1000 PHY_26
*1001 PHY_27
*1002 PHY_28
*1003 PHY_29
*1004 PHY_3
*1005 PHY_30
*1006 PHY_31
*1007 PHY_32
*1008 PHY_33
*1009 PHY_34
*1010 PHY_35
*1011 PHY_36
*1012 PHY_37
*1013 PHY_38
*1014 PHY_39
*1015 PHY_4
*1016 PHY_40
*1017 PHY_41
*1018 PHY_42
*1019 PHY_43
*1020 PHY_44
*1021 PHY_45
*1022 PHY_46
*1023 PHY_47
*1024 PHY_48
*1025 PHY_49
*1026 PHY_5
*1027 PHY_50
*1028 PHY_51
*1029 PHY_52
*1030 PHY_53
*1031 PHY_54
*1032 PHY_55
*1033 PHY_56
*1034 PHY_57
*1035 PHY_58
*1036 PHY_59
*1037 PHY_6
*1038 PHY_60
*1039 PHY_61
*1040 PHY_62
*1041 PHY_63
*1042 PHY_64
*1043 PHY_65
*1044 PHY_7
*1045 PHY_8
*1046 PHY_9
*1047 TAP_100
*1048 TAP_101
*1049 TAP_102
*1050 TAP_103
*1051 TAP_104
*1052 TAP_105
*1053 TAP_106
*1054 TAP_107
*1055 TAP_108
*1056 TAP_109
*1057 TAP_110
*1058 TAP_111
*1059 TAP_112
*1060 TAP_113
*1061 TAP_114
*1062 TAP_115
*1063 TAP_116
*1064 TAP_117
*1065 TAP_118
*1066 TAP_119
*1067 TAP_120
*1068 TAP_121
*1069 TAP_122
*1070 TAP_123
*1071 TAP_124
*1072 TAP_125
*1073 TAP_126
*1074 TAP_127
*1075 TAP_128
*1076 TAP_129
*1077 TAP_130
*1078 TAP_131
*1079 TAP_132
*1080 TAP_133
*1081 TAP_134
*1082 TAP_135
*1083 TAP_136
*1084 TAP_137
*1085 TAP_138
*1086 TAP_139
*1087 TAP_140
*1088 TAP_141
*1089 TAP_142
*1090 TAP_143
*1091 TAP_144
*1092 TAP_145
*1093 TAP_146
*1094 TAP_147
*1095 TAP_148
*1096 TAP_149
*1097 TAP_150
*1098 TAP_151
*1099 TAP_152
*1100 TAP_153
*1101 TAP_154
*1102 TAP_155
*1103 TAP_156
*1104 TAP_157
*1105 TAP_158
*1106 TAP_159
*1107 TAP_160
*1108 TAP_161
*1109 TAP_162
*1110 TAP_163
*1111 TAP_164
*1112 TAP_165
*1113 TAP_166
*1114 TAP_167
*1115 TAP_168
*1116 TAP_169
*1117 TAP_170
*1118 TAP_66
*1119 TAP_67
*1120 TAP_68
*1121 TAP_69
*1122 TAP_70
*1123 TAP_71
*1124 TAP_72
*1125 TAP_73
*1126 TAP_74
*1127 TAP_75
*1128 TAP_76
*1129 TAP_77
*1130 TAP_78
*1131 TAP_79
*1132 TAP_80
*1133 TAP_81
*1134 TAP_82
*1135 TAP_83
*1136 TAP_84
*1137 TAP_85
*1138 TAP_86
*1139 TAP_87
*1140 TAP_88
*1141 TAP_89
*1142 TAP_90
*1143 TAP_91
*1144 TAP_92
*1145 TAP_93
*1146 TAP_94
*1147 TAP_95
*1148 TAP_96
*1149 TAP_97
*1150 TAP_98
*1151 TAP_99
*1152 _291_
*1153 _292_
*1154 _293_
*1155 _294_
*1156 _295_
*1157 _296_
*1158 _297_
*1159 _298_
*1160 _299_
*1161 _300_
*1162 _301_
*1163 _302_
*1164 _303_
*1165 _304_
*1166 _305_
*1167 _306_
*1168 _307_
*1169 _308_
*1170 _309_
*1171 _310_
*1172 _311_
*1173 _312_
*1174 _313_
*1175 _314_
*1176 _315_
*1177 _316_
*1178 _317_
*1179 _318_
*1180 _319_
*1181 _320_
*1182 _321_
*1183 _322_
*1184 _323_
*1185 _324_
*1186 _325_
*1187 _326_
*1188 _327_
*1189 _328_
*1190 _329_
*1191 _330_
*1192 _331_
*1193 _332_
*1194 _333_
*1195 _334_
*1196 _335_
*1197 _336_
*1198 _337_
*1199 _338_
*1200 _339_
*1201 _340_
*1202 _341_
*1203 _342_
*1204 _343_
*1205 _344_
*1206 _345_
*1207 _346_
*1208 _347_
*1209 _348_
*1210 _349_
*1211 _350_
*1212 _351_
*1213 _352_
*1214 _353_
*1215 _354_
*1216 _355_
*1217 _356_
*1218 _357_
*1219 _358_
*1220 _359_
*1221 _360_
*1222 _361_
*1223 _362_
*1224 _363_
*1225 _364_
*1226 _365_
*1227 _366_
*1228 _367_
*1229 _368_
*1230 _369_
*1231 _370_
*1232 _371_
*1233 _372_
*1234 _373_
*1235 _374_
*1236 _375_
*1237 _376_
*1238 _377_
*1239 _378_
*1240 _379_
*1241 _380_
*1242 _381_
*1243 _382_
*1244 _383_
*1245 _384_
*1246 _385_
*1247 _386_
*1248 _387_
*1249 _388_
*1250 _389_
*1251 _390_
*1252 _391_
*1253 _392_
*1254 _393_
*1255 _394_
*1256 _395_
*1257 _396_
*1258 _397_
*1259 _398_
*1260 _399_
*1261 _400_
*1262 _401_
*1263 _402_
*1264 _403_
*1265 _404_
*1266 _405_
*1267 _406_
*1268 _407_
*1269 _408_
*1270 _409_
*1271 _410_
*1272 _411_
*1273 _412_
*1274 _413_
*1275 _414_
*1276 _415_
*1277 _416_
*1278 _417_
*1279 _418_
*1280 _419_
*1281 _420_
*1282 _421_
*1283 _422_
*1284 _423_
*1285 _424_
*1286 _425_
*1287 _426_
*1288 _427_
*1289 _428_
*1290 _429_
*1291 _430_
*1292 _431_
*1293 _432_
*1294 _433_
*1295 _434_
*1296 _435_
*1297 _436_
*1298 _437_
*1299 _438_
*1300 _439_
*1301 _440_
*1302 _441_
*1303 _442_
*1304 _443_
*1305 _444_
*1306 _445_
*1307 _446_
*1308 _447_
*1309 _448_
*1310 _449_
*1311 _450_
*1312 _451_
*1313 _452_
*1314 _453_
*1315 _454_
*1316 _455_
*1317 _456_
*1318 _457_
*1319 _458_
*1320 _459_
*1321 _460_
*1322 _461_
*1323 _462_
*1324 _463_
*1325 _464_
*1326 _465_
*1327 _466_
*1328 _467_
*1329 _468_
*1330 _469_
*1331 _470_
*1332 _471_
*1333 _472_
*1334 _473_
*1335 _474_
*1336 _475_
*1337 _476_
*1338 _477_
*1339 _478_
*1340 _479_
*1341 _480_
*1342 _481_
*1343 _482_
*1344 _483_
*1345 _484_
*1346 _485_
*1347 _486_
*1348 _487_
*1349 _488_
*1350 _489_
*1351 _490_
*1352 _491_
*1353 _492_
*1354 _493_
*1355 _494_
*1356 _495_
*1357 _496_
*1358 _497_
*1359 _498_
*1360 _499_
*1361 _500_
*1362 _501_
*1363 _502_
*1364 _503_
*1365 _504_
*1366 _505_
*1367 _506_
*1368 _507_
*1369 _508_
*1370 _509_
*1371 _510_
*1372 _511_
*1373 _512_
*1374 _513_
*1375 _514_
*1376 _515_
*1377 _516_
*1378 _517_
*1379 _518_
*1380 _519_
*1381 _520_
*1382 _521_
*1383 _522_
*1384 _523_
*1385 _524_
*1386 _525_
*1387 _526_
*1388 _527_
*1389 _528_
*1390 _529_
*1391 _530_
*1392 _531_
*1393 _532_
*1394 _533_
*1395 _534_
*1396 _535_
*1397 _536_
*1398 _537_
*1399 _538_
*1400 _539_
*1401 _540_
*1402 _541_
*1403 _542_
*1404 _543_
*1405 _544_
*1406 _545_
*1407 _546_
*1408 _547_
*1409 _548_
*1410 _549_
*1411 _550_
*1412 _551_
*1413 _552_
*1414 _553_
*1415 _554_
*1416 _555_
*1417 _556_
*1418 _557_
*1419 _558_
*1420 _559_
*1421 _560_
*1422 _561_
*1423 _562_
*1424 _563_
*1425 _564_
*1426 _565_
*1427 _566_
*1428 _567_
*1429 _568_
*1430 _569_
*1431 _570_
*1432 _571_
*1433 _572_
*1434 _573_
*1435 _574_
*1436 _575_
*1437 _576_
*1438 _577_
*1439 _578_
*1440 _579_
*1441 _580_
*1442 _581_
*1443 _582_
*1444 _583_
*1445 _584_
*1446 _585_
*1447 _586_
*1448 _587_
*1449 _588_
*1450 _589_
*1451 _590_
*1452 _591_
*1453 _592_
*1454 _593_
*1455 _594_
*1456 _595_
*1457 _596_
*1458 _597_
*1459 _598_
*1460 _599_
*1461 _600_
*1462 _601_
*1463 _602_
*1464 _603_
*1465 _604_
*1466 _605_
*1467 _606_
*1468 _607_
*1469 _608_
*1470 _609_
*1471 _610_
*1472 _611_
*1473 _612_
*1474 _613_
*1475 _614_
*1476 _615_
*1477 _616_
*1478 _617_
*1479 _618_
*1480 _619_
*1481 _620_
*1482 _621_
*1483 _622_
*1484 _623_
*1485 _624_
*1486 _625_
*1487 _626_
*1488 _627_
*1489 _628_
*1490 _629_
*1491 _630_
*1492 _631_
*1493 _632_
*1494 _633_
*1495 _634_
*1496 _635_
*1497 _636_
*1498 _637_
*1499 _638_
*1500 _639_
*1501 _640_
*1502 _641_
*1503 _642_
*1504 _643_
*1505 _644_
*1506 _645_
*1507 _646_
*1508 _647_
*1509 _648_
*1510 _649_
*1511 _650_
*1512 _651_
*1513 _652_
*1514 _653_
*1515 _654_
*1516 _655_
*1517 _656_
*1518 _657_
*1519 _658_
*1520 _659_
*1521 _660_
*1522 _661_
*1523 _662_
*1524 _663_
*1525 _664_
*1526 _665_
*1527 _666_
*1528 _667_
*1529 _668_
*1530 _669_
*1531 _670_
*1532 _671_
*1533 _672_
*1534 _673_
*1535 _674_
*1536 _675_
*1537 clkbuf_0_clk
*1538 clkbuf_3_0__f_clk
*1539 clkbuf_3_1__f_clk
*1540 clkbuf_3_2__f_clk
*1541 clkbuf_3_3__f_clk
*1542 clkbuf_3_4__f_clk
*1543 clkbuf_3_5__f_clk
*1544 clkbuf_3_6__f_clk
*1545 clkbuf_3_7__f_clk
*1546 hold1
*1547 hold10
*1548 hold11
*1549 hold12
*1550 hold13
*1551 hold14
*1552 hold15
*1553 hold16
*1554 hold17
*1555 hold18
*1556 hold19
*1557 hold2
*1558 hold20
*1559 hold21
*1560 hold22
*1561 hold23
*1562 hold24
*1563 hold25
*1564 hold26
*1565 hold27
*1566 hold28
*1567 hold29
*1568 hold3
*1569 hold30
*1570 hold31
*1571 hold32
*1572 hold33
*1573 hold34
*1574 hold35
*1575 hold36
*1576 hold37
*1577 hold38
*1578 hold39
*1579 hold4
*1580 hold40
*1581 hold41
*1582 hold42
*1583 hold43
*1584 hold44
*1585 hold45
*1586 hold46
*1587 hold47
*1588 hold48
*1589 hold49
*1590 hold5
*1591 hold50
*1592 hold51
*1593 hold52
*1594 hold53
*1595 hold54
*1596 hold55
*1597 hold56
*1598 hold57
*1599 hold58
*1600 hold59
*1601 hold6
*1602 hold60
*1603 hold61
*1604 hold62
*1605 hold63
*1606 hold64
*1607 hold65
*1608 hold66
*1609 hold67
*1610 hold68
*1611 hold69
*1612 hold7
*1613 hold70
*1614 hold71
*1615 hold72
*1616 hold73
*1617 hold74
*1618 hold75
*1619 hold8
*1620 hold9
*1621 input1
*1622 input10
*1623 input11
*1624 input2
*1625 input3
*1626 input4
*1627 input5
*1628 input6
*1629 input7
*1630 input8
*1631 input9
*1632 max_cap34
*1633 output12
*1634 output13
*1635 output14
*1636 output15
*1637 output16
*1638 output17
*1639 output18
*1640 output19
*1641 output20
*1642 output21
*1643 output22
*1644 output23
*1645 output24
*1646 output25
*1647 output26
*1648 output27
*1649 output28
*1650 output29
*1651 output30
*1652 output31
*1653 output32
*1654 output33

*PORTS
almost_empty O
almost_full O
clk I
din[0] I
din[1] I
din[2] I
din[3] I
din[4] I
din[5] I
din[6] I
din[7] I
dout[0] O
dout[1] O
dout[2] O
dout[3] O
dout[4] O
dout[5] O
dout[6] O
dout[7] O
empty O
full O
overrun O
rd I
rst I
underrun O
unused[0] O
unused[1] O
unused[2] O
unused[3] O
used[0] O
used[1] O
used[2] O
used[3] O
wr I

*D_NET *3 0.000627362
*CONN
*P almost_empty O
*I *1633:X O *D sky130_fd_sc_hd__clkbuf_4
*CAP
1 almost_empty 0.000313681
2 *1633:X 0.000313681
*RES
1 *1633:X almost_empty 7.24043 
*END

*D_NET *4 0.00115946
*CONN
*P almost_full O
*I *1634:X O *D sky130_fd_sc_hd__clkbuf_4
*CAP
1 almost_full 0.000518652
2 *1634:X 0.000518652
3 almost_full *1654:A 0.000122155
*RES
1 *1634:X almost_full 12.24 
*END

*D_NET *5 0.00997102
*CONN
*P clk I
*I *1537:A I *D sky130_fd_sc_hd__clkbuf_16
*CAP
1 clk 0.0046305
2 *1537:A 0.0046305
3 *1537:A *1173:B1 0
4 *1537:A *1182:D1 4.99307e-05
5 *1537:A *1270:A1 5.76904e-05
6 *1537:A *1335:A0 0.00016163
7 *1537:A *163:197 0
8 *1537:A *258:56 0.00018471
9 *1537:A *299:22 0
10 *1537:A *328:79 0
11 *1537:A *328:113 1.68004e-05
12 *1537:A *430:14 0
13 *1537:A *499:44 0.000239263
*RES
1 clk *1537:A 15.6607 
*END

*D_NET *6 0.00110321
*CONN
*P din[0] I
*I *1621:A I *D sky130_fd_sc_hd__clkbuf_2
*CAP
1 din[0] 0.000462619
2 *1621:A 0.000462619
3 *1621:A unused[2] 0
4 *1621:A *401:6 5.30673e-05
5 *1621:A *425:71 0.0001249
*RES
1 din[0] *1621:A 12.315 
*END

*D_NET *7 0.00189201
*CONN
*P din[1] I
*I *1624:A I *D sky130_fd_sc_hd__buf_2
*CAP
1 din[1] 0.000901873
2 *1624:A 0.000901873
3 *1624:A *1654:A 8.8266e-05
*RES
1 din[1] *1624:A 19.215 
*END

*D_NET *8 0.00112625
*CONN
*P din[2] I
*I *1625:A I *D sky130_fd_sc_hd__clkbuf_2
*CAP
1 din[2] 0.000452663
2 *1625:A 0.000452663
3 *1625:A *401:8 4.60584e-05
4 *1625:A *425:71 0.0001249
5 *1625:A *433:14 4.99619e-05
*RES
1 din[2] *1625:A 12.315 
*END

*D_NET *9 0.0011661
*CONN
*P din[3] I
*I *1626:A I *D sky130_fd_sc_hd__buf_2
*CAP
1 din[3] 0.000583048
2 *1626:A 0.000583048
*RES
1 din[3] *1626:A 6.8919 
*END

*D_NET *10 0.000592885
*CONN
*P din[4] I
*I *1627:A I *D sky130_fd_sc_hd__clkbuf_2
*CAP
1 din[4] 0.000296443
2 *1627:A 0.000296443
3 *1627:A *333:22 0
*RES
1 din[4] *1627:A 7.49543 
*END

*D_NET *11 0.000490389
*CONN
*P din[5] I
*I *1628:A I *D sky130_fd_sc_hd__clkbuf_2
*CAP
1 din[5] 0.000245195
2 *1628:A 0.000245195
3 *1628:A *431:16 0
*RES
1 din[5] *1628:A 6.4437 
*END

*D_NET *12 0.00121815
*CONN
*P din[6] I
*I *1629:A I *D sky130_fd_sc_hd__clkbuf_2
*CAP
1 din[6] 0.000609077
2 *1629:A 0.000609077
*RES
1 din[6] *1629:A 13.89 
*END

*D_NET *13 0.000869883
*CONN
*P din[7] I
*I *1630:A I *D sky130_fd_sc_hd__clkbuf_2
*CAP
1 din[7] 0.000392297
2 *1630:A 0.000392297
3 *1630:A *1644:A 8.52883e-05
*RES
1 din[7] *1630:A 10.44 
*END

*D_NET *14 0.000751935
*CONN
*P dout[0] O
*I *1635:X O *D sky130_fd_sc_hd__clkbuf_4
*CAP
1 dout[0] 0.000375967
2 *1635:X 0.000375967
*RES
1 *1635:X dout[0] 8.48717 
*END

*D_NET *15 0.000544804
*CONN
*P dout[1] O
*I *1636:X O *D sky130_fd_sc_hd__buf_2
*CAP
1 dout[1] 0.00023892
2 *1636:X 0.00023892
3 dout[1] *417:8 2.28415e-05
4 dout[1] *431:16 4.4123e-05
*RES
1 *1636:X dout[1] 5.2183 
*END

*D_NET *16 0.00163479
*CONN
*P dout[2] O
*I *1637:X O *D sky130_fd_sc_hd__clkbuf_4
*CAP
1 dout[2] 0.000817396
2 *1637:X 0.000817396
*RES
1 *1637:X dout[2] 17.055 
*END

*D_NET *17 0.00101921
*CONN
*P dout[3] O
*I *1638:X O *D sky130_fd_sc_hd__clkbuf_4
*CAP
1 dout[3] 0.000473254
2 *1638:X 0.000473254
3 dout[3] *425:71 7.27003e-05
*RES
1 *1638:X dout[3] 11.55 
*END

*D_NET *18 0.000943921
*CONN
*P dout[4] O
*I *1639:X O *D sky130_fd_sc_hd__clkbuf_4
*CAP
1 dout[4] 0.000445427
2 *1639:X 0.000445427
3 dout[4] used[3] 0
4 dout[4] *1654:A 5.30673e-05
*RES
1 *1639:X dout[4] 11.205 
*END

*D_NET *19 0.000574421
*CONN
*P dout[5] O
*I *1640:X O *D sky130_fd_sc_hd__clkbuf_4
*CAP
1 dout[5] 0.000287211
2 *1640:X 0.000287211
*RES
1 *1640:X dout[5] 6.73043 
*END

*D_NET *20 0.000832308
*CONN
*P dout[6] O
*I *1641:X O *D sky130_fd_sc_hd__clkbuf_4
*CAP
1 dout[6] 0.00029695
2 *1641:X 0.00029695
3 dout[6] *1641:A 7.91745e-05
4 dout[6] *423:8 5.53549e-06
5 dout[6] *477:12 0.000153698
*RES
1 *1641:X dout[6] 6.4933 
*END

*D_NET *21 0.000737404
*CONN
*P dout[7] O
*I *1642:X O *D sky130_fd_sc_hd__clkbuf_4
*CAP
1 dout[7] 0.000367217
2 *1642:X 0.000367217
3 dout[7] *1395:A1 2.97004e-06
*RES
1 *1642:X dout[7] 10.2 
*END

*D_NET *22 0.00136978
*CONN
*P empty O
*I *1643:X O *D sky130_fd_sc_hd__clkbuf_4
*CAP
1 empty 0.000684888
2 *1643:X 0.000684888
*RES
1 *1643:X empty 14.655 
*END

*D_NET *23 0.000949406
*CONN
*P full O
*I *1644:X O *D sky130_fd_sc_hd__buf_2
*CAP
1 full 0.000474703
2 *1644:X 0.000474703
*RES
1 *1644:X full 8.1981 
*END

*D_NET *24 0.000656106
*CONN
*P overrun O
*I *1645:X O *D sky130_fd_sc_hd__clkbuf_4
*CAP
1 overrun 0.000328053
2 *1645:X 0.000328053
*RES
1 *1645:X overrun 9.39 
*END

*D_NET *25 0.000770981
*CONN
*P rd I
*I *1631:A I *D sky130_fd_sc_hd__buf_2
*CAP
1 rd 0.00038549
2 *1631:A 0.00038549
*RES
1 rd *1631:A 10.35 
*END

*D_NET *26 0.000772376
*CONN
*P rst I
*I *1622:A I *D sky130_fd_sc_hd__buf_1
*CAP
1 rst 0.000386188
2 *1622:A 0.000386188
*RES
1 rst *1622:A 10.455 
*END

*D_NET *27 0.000735795
*CONN
*P underrun O
*I *1646:X O *D sky130_fd_sc_hd__buf_2
*CAP
1 underrun 0.000289484
2 *1646:X 0.000289484
3 underrun *1611:A 1.93834e-05
4 underrun *1646:A 8.23448e-05
5 underrun *413:20 5.50989e-05
*RES
1 *1646:X underrun 6.4933 
*END

*D_NET *28 0.00185763
*CONN
*P unused[0] O
*I *1647:X O *D sky130_fd_sc_hd__clkbuf_4
*CAP
1 unused[0] 0.000701692
2 *1647:X 0.000701692
3 unused[0] *1557:A 0.000163204
4 unused[0] *1644:A 0.000291045
*RES
1 *1647:X unused[0] 16.11 
*END

*D_NET *29 0.000546246
*CONN
*P unused[1] O
*I *1648:X O *D sky130_fd_sc_hd__clkbuf_4
*CAP
1 unused[1] 0.000273123
2 *1648:X 0.000273123
3 unused[1] *1648:A 0
*RES
1 *1648:X unused[1] 7.15043 
*END

*D_NET *30 0.000884974
*CONN
*P unused[2] O
*I *1649:X O *D sky130_fd_sc_hd__buf_2
*CAP
1 unused[2] 0.000442487
2 *1649:X 0.000442487
3 *1621:A unused[2] 0
*RES
1 *1649:X unused[2] 8.47503 
*END

*D_NET *31 0.00120276
*CONN
*P unused[3] O
*I *1650:X O *D sky130_fd_sc_hd__clkbuf_4
*CAP
1 unused[3] 0.00052039
2 *1650:X 0.00052039
3 unused[3] *425:71 0.000161984
*RES
1 *1650:X unused[3] 12.45 
*END

*D_NET *32 0.00208596
*CONN
*P used[0] O
*I *1651:X O *D sky130_fd_sc_hd__clkbuf_4
*CAP
1 used[0] 0.000749868
2 *1651:X 0.000749868
3 used[0] *425:71 0.00058622
*RES
1 *1651:X used[0] 15.69 
*END

*D_NET *33 0.00116484
*CONN
*P used[1] O
*I *1652:X O *D sky130_fd_sc_hd__clkbuf_4
*CAP
1 used[1] 0.000499378
2 *1652:X 0.000499378
3 used[1] *1395:S 0.000161898
4 used[1] *1397:A0 4.18603e-06
*RES
1 *1652:X used[1] 12.12 
*END

*D_NET *34 0.000618091
*CONN
*P used[2] O
*I *1653:X O *D sky130_fd_sc_hd__clkbuf_4
*CAP
1 used[2] 0.000309046
2 *1653:X 0.000309046
3 used[2] *1653:A 0
*RES
1 *1653:X used[2] 7.24043 
*END

*D_NET *35 0.0010383
*CONN
*P used[3] O
*I *1654:X O *D sky130_fd_sc_hd__clkbuf_4
*CAP
1 used[3] 0.000519152
2 *1654:X 0.000519152
3 dout[4] used[3] 0
*RES
1 *1654:X used[3] 7.90597 
*END

*D_NET *36 0.000508988
*CONN
*P wr I
*I *1623:A I *D sky130_fd_sc_hd__clkbuf_2
*CAP
1 wr 0.000254494
2 *1623:A 0.000254494
*RES
1 wr *1623:A 6.4437 
*END

*D_NET *37 0.00234174
*CONN
*I *1462:RESET_B I *D sky130_fd_sc_hd__dfrtp_1
*I *1399:C I *D sky130_fd_sc_hd__and4_1
*I *1325:C I *D sky130_fd_sc_hd__and4b_1
*I *1306:Y O *D sky130_fd_sc_hd__inv_2
*CAP
1 *1462:RESET_B 2.20699e-05
2 *1399:C 0.000175168
3 *1325:C 0
4 *1306:Y 8.04053e-05
5 *37:10 0.000368908
6 *37:6 0.000296216
7 *1399:C *1325:D 3.12855e-05
8 *1399:C *1345:A_N 2.19016e-05
9 *1399:C *1399:D 4.77769e-05
10 *1399:C *1647:A 0.000231694
11 *1399:C *255:8 4.43855e-05
12 *1399:C *268:26 0.000156152
13 *1399:C *297:14 3.83194e-05
14 *1399:C *514:59 6.07575e-06
15 *1462:RESET_B *288:38 1.13009e-05
16 *37:6 *1476:RESET_B 0.000162311
17 *37:6 *288:38 9.06678e-05
18 *37:10 *1325:D 0.000112595
19 *37:10 *1647:A 0.000444508
20 *37:10 *426:10 0
21 *37:10 *514:10 0
*RES
1 *1306:Y *37:6 3.775 
2 *37:6 *37:10 7.205 
3 *37:10 *1325:C 3.6 
4 *37:10 *1399:C 8.355 
5 *37:6 *1462:RESET_B 0.3975 
*END

*D_NET *38 0.000338601
*CONN
*I *1463:RESET_B I *D sky130_fd_sc_hd__dfrtp_1
*I *1308:Y O *D sky130_fd_sc_hd__inv_2
*CAP
1 *1463:RESET_B 4.16824e-05
2 *1308:Y 4.16824e-05
3 *1463:RESET_B *1270:B1 9.22934e-05
4 *1463:RESET_B *254:129 0.000162942
*RES
1 *1308:Y *1463:RESET_B 7.49 
*END

*D_NET *39 0.000172365
*CONN
*I *1464:RESET_B I *D sky130_fd_sc_hd__dfrtp_1
*I *1309:Y O *D sky130_fd_sc_hd__inv_2
*CAP
1 *1464:RESET_B 3.22108e-05
2 *1309:Y 3.22108e-05
3 *1464:RESET_B *1268:A 5.39718e-05
4 *1464:RESET_B *431:16 5.39718e-05
*RES
1 *1309:Y *1464:RESET_B 6.725 
*END

*D_NET *40 0.000340555
*CONN
*I *1465:RESET_B I *D sky130_fd_sc_hd__dfrtp_1
*I *1310:Y O *D sky130_fd_sc_hd__inv_2
*CAP
1 *1465:RESET_B 3.99645e-05
2 *1310:Y 3.99645e-05
3 *1465:RESET_B *254:113 0.000166346
4 *1465:RESET_B *431:16 9.428e-05
*RES
1 *1310:Y *1465:RESET_B 7.49 
*END

*D_NET *41 0.000422079
*CONN
*I *1466:RESET_B I *D sky130_fd_sc_hd__dfrtp_1
*I *1311:Y O *D sky130_fd_sc_hd__inv_2
*CAP
1 *1466:RESET_B 0.00019153
2 *1311:Y 0.00019153
3 *1466:RESET_B *254:46 0
4 *1466:RESET_B *418:12 3.90192e-05
*RES
1 *1311:Y *1466:RESET_B 8.5775 
*END

*D_NET *42 0.000159128
*CONN
*I *1467:RESET_B I *D sky130_fd_sc_hd__dfrtp_1
*I *1312:Y O *D sky130_fd_sc_hd__inv_2
*CAP
1 *1467:RESET_B 7.72846e-05
2 *1312:Y 7.72846e-05
3 *1467:RESET_B *1240:A1 4.55864e-06
4 *1467:RESET_B *1467:CLK 0
5 *1467:RESET_B *309:89 0
*RES
1 *1312:Y *1467:RESET_B 6.725 
*END

*D_NET *43 0.000452289
*CONN
*I *1468:RESET_B I *D sky130_fd_sc_hd__dfrtp_1
*I *1313:Y O *D sky130_fd_sc_hd__inv_2
*CAP
1 *1468:RESET_B 0.000168766
2 *1313:Y 0.000168766
3 *1468:RESET_B *1232:A 0.000114757
4 *1468:RESET_B *1492:CLK 0
5 *1468:RESET_B *163:45 0
*RES
1 *1313:Y *1468:RESET_B 8.375 
*END

*D_NET *44 0.000236349
*CONN
*I *1469:RESET_B I *D sky130_fd_sc_hd__dfrtp_1
*I *1314:Y O *D sky130_fd_sc_hd__inv_2
*CAP
1 *1469:RESET_B 8.34489e-05
2 *1314:Y 8.34489e-05
3 *1469:RESET_B *1223:A 6.9451e-05
4 *1469:RESET_B *254:46 0
*RES
1 *1314:Y *1469:RESET_B 7.49 
*END

*D_NET *45 0.000237518
*CONN
*I *1470:RESET_B I *D sky130_fd_sc_hd__dfrtp_1
*I *1315:Y O *D sky130_fd_sc_hd__inv_2
*CAP
1 *1470:RESET_B 2.49745e-05
2 *1315:Y 2.49745e-05
3 *1470:RESET_B *1213:A0 9.37846e-05
4 *1470:RESET_B *254:129 9.37846e-05
*RES
1 *1315:Y *1470:RESET_B 6.725 
*END

*D_NET *46 0.000659877
*CONN
*I *1471:RESET_B I *D sky130_fd_sc_hd__dfrtp_1
*I *1316:Y O *D sky130_fd_sc_hd__inv_2
*CAP
1 *1471:RESET_B 0.00028339
2 *1316:Y 0.00028339
3 *1471:RESET_B *1610:A 0
4 *1471:RESET_B *1642:A 9.30977e-05
*RES
1 *1316:Y *1471:RESET_B 10.3925 
*END

*D_NET *47 0.000346029
*CONN
*I *1472:RESET_B I *D sky130_fd_sc_hd__dfrtp_1
*I *1317:Y O *D sky130_fd_sc_hd__inv_2
*CAP
1 *1472:RESET_B 4.52103e-05
2 *1317:Y 4.52103e-05
3 *1472:RESET_B *268:26 0.000163985
4 *1472:RESET_B *499:19 9.16237e-05
*RES
1 *1317:Y *1472:RESET_B 7.49 
*END

*D_NET *48 0.00108421
*CONN
*I *1473:RESET_B I *D sky130_fd_sc_hd__dfrtp_1
*I *1318:Y O *D sky130_fd_sc_hd__inv_2
*CAP
1 *1473:RESET_B 0.000225946
2 *1318:Y 0.000225946
3 *1473:RESET_B *1183:A1 0.000265826
4 *1473:RESET_B *329:105 3.23391e-05
5 *1473:RESET_B *512:23 0.000178027
6 *1473:RESET_B *512:44 0.000156124
*RES
1 *1318:Y *1473:RESET_B 10.67 
*END

*D_NET *49 0.000424124
*CONN
*I *1474:RESET_B I *D sky130_fd_sc_hd__dfrtp_4
*I *1319:Y O *D sky130_fd_sc_hd__inv_2
*CAP
1 *1474:RESET_B 0.000115721
2 *1319:Y 0.000115721
3 *1474:RESET_B *1183:B1_N 0.000163985
4 *1474:RESET_B *238:16 2.86975e-05
*RES
1 *1319:Y *1474:RESET_B 7.94 
*END

*D_NET *50 0.000472179
*CONN
*I *1475:RESET_B I *D sky130_fd_sc_hd__dfrtp_2
*I *1320:Y O *D sky130_fd_sc_hd__inv_2
*CAP
1 *1475:RESET_B 0.00012187
2 *1320:Y 0.00012187
3 *1475:RESET_B *1317:A 0.000152835
4 *1475:RESET_B *1475:D 4.63425e-05
5 *1475:RESET_B *244:66 2.92612e-05
*RES
1 *1320:Y *1475:RESET_B 8.1575 
*END

*D_NET *51 0.0010794
*CONN
*I *1476:RESET_B I *D sky130_fd_sc_hd__dfrtp_4
*I *1321:Y O *D sky130_fd_sc_hd__inv_2
*CAP
1 *1476:RESET_B 0.000354263
2 *1321:Y 0.000354263
3 *1476:RESET_B *1170:B 4.89295e-05
4 *1476:RESET_B *1272:A1 3.39151e-05
5 *1476:RESET_B *1306:A 2.26739e-05
6 *1476:RESET_B *1647:A 9.37731e-05
7 *1476:RESET_B *288:38 9.27255e-06
8 *37:6 *1476:RESET_B 0.000162311
*RES
1 *1321:Y *1476:RESET_B 10.6775 
*END

*D_NET *52 0.000605853
*CONN
*I *1477:RESET_B I *D sky130_fd_sc_hd__dfrtp_4
*I *1322:Y O *D sky130_fd_sc_hd__inv_2
*CAP
1 *1477:RESET_B 0.000131536
2 *1322:Y 0.000131536
3 *1477:RESET_B *1167:A 2.49155e-05
4 *1477:RESET_B *1167:B 5.76118e-05
5 *1477:RESET_B *1168:A 4.18603e-06
6 *1477:RESET_B *1168:B 0.000163992
7 *1477:RESET_B *1322:A 2.55704e-05
8 *1477:RESET_B *144:10 6.65066e-05
*RES
1 *1322:Y *1477:RESET_B 8.99 
*END

*D_NET *53 0.000260031
*CONN
*I *1478:RESET_B I *D sky130_fd_sc_hd__dfrtp_4
*I *1323:Y O *D sky130_fd_sc_hd__inv_2
*CAP
1 *1478:RESET_B 0.000104194
2 *1323:Y 0.000104194
3 *1478:RESET_B *1323:A 0
4 *1478:RESET_B *244:21 0
5 *1478:RESET_B *288:38 5.16418e-05
6 *1478:RESET_B *499:8 0
*RES
1 *1323:Y *1478:RESET_B 7.235 
*END

*D_NET *54 0.000602411
*CONN
*I *1479:RESET_B I *D sky130_fd_sc_hd__dfrtp_2
*I *1324:Y O *D sky130_fd_sc_hd__inv_2
*CAP
1 *1479:RESET_B 0.000295034
2 *1324:Y 0.000295034
3 *1479:RESET_B *329:24 1.23437e-05
*RES
1 *1324:Y *1479:RESET_B 10.085 
*END

*D_NET *55 0.00149269
*CONN
*I *1454:D I *D sky130_fd_sc_hd__dfxtp_1
*I *1291:X O *D sky130_fd_sc_hd__clkbuf_1
*CAP
1 *1454:D 0.000263021
2 *1291:X 0.000263021
3 *1454:D *1261:B1 0.00022538
4 *1454:D *1266:A1 0.000196376
5 *1454:D *1329:A1 9.73245e-05
6 *1454:D *160:150 3.98952e-05
7 *1454:D *309:54 0.000310738
8 *1454:D *335:110 9.69337e-05
*RES
1 *1291:X *1454:D 13.8713 
*END

*D_NET *56 0.000573915
*CONN
*I *1455:D I *D sky130_fd_sc_hd__dfxtp_1
*I *1293:X O *D sky130_fd_sc_hd__clkbuf_1
*CAP
1 *1455:D 0.000172755
2 *1293:X 0.000172755
3 *1455:D *1284:A 5.39718e-05
4 *1455:D *1455:CLK 0.000122337
5 *1455:D *438:23 5.20968e-05
*RES
1 *1293:X *1455:D 10.3837 
*END

*D_NET *57 0.00113292
*CONN
*I *1456:D I *D sky130_fd_sc_hd__dfxtp_1
*I *1295:X O *D sky130_fd_sc_hd__clkbuf_1
*CAP
1 *1456:D 0.000253037
2 *1295:X 0.000253037
3 *1456:D *1243:A1 2.99026e-05
4 *1456:D *1651:A 0.000298473
5 *1456:D *172:98 0.000298473
*RES
1 *1295:X *1456:D 13.0837 
*END

*D_NET *58 0.000391539
*CONN
*I *1457:D I *D sky130_fd_sc_hd__dfxtp_1
*I *1297:X O *D sky130_fd_sc_hd__clkbuf_1
*CAP
1 *1457:D 9.7863e-05
2 *1297:X 9.7863e-05
3 *1457:D *1234:A2 5.37091e-05
4 *1457:D *1297:A 8.71001e-05
5 *1457:D *1457:CLK 5.20335e-05
6 *1457:D *158:83 2.97004e-06
7 *1457:D *158:91 0
*RES
1 *1297:X *1457:D 9.57375 
*END

*D_NET *59 0.000323328
*CONN
*I *1458:D I *D sky130_fd_sc_hd__dfxtp_1
*I *1299:X O *D sky130_fd_sc_hd__clkbuf_1
*CAP
1 *1458:D 6.57034e-05
2 *1299:X 6.57034e-05
3 *1458:D *1458:CLK 9.51364e-05
4 *1458:D *333:10 5.31158e-06
5 *1458:D *365:16 9.14729e-05
*RES
1 *1299:X *1458:D 8.80875 
*END

*D_NET *60 0.000540036
*CONN
*I *1459:D I *D sky130_fd_sc_hd__dfxtp_1
*I *1301:X O *D sky130_fd_sc_hd__clkbuf_1
*CAP
1 *1459:D 0.000115011
2 *1301:X 0.000115011
3 *1459:D *1221:A1 8.89101e-06
4 *1459:D *1221:B1 4.82319e-06
5 *1459:D *1465:CLK 1.82111e-05
6 *1459:D *165:90 0.000133453
7 *1459:D *245:102 8.41384e-05
8 *1459:D *335:106 6.04973e-05
*RES
1 *1301:X *1459:D 9.76875 
*END

*D_NET *61 0.000356898
*CONN
*I *1460:D I *D sky130_fd_sc_hd__dfxtp_1
*I *1303:X O *D sky130_fd_sc_hd__clkbuf_1
*CAP
1 *1460:D 5.4292e-05
2 *1303:X 5.4292e-05
3 *1460:D *1213:S 0.000110179
4 *1460:D *1303:A 1.14192e-05
5 *1460:D *331:105 1.5379e-05
6 *1460:D *331:114 0.000111337
*RES
1 *1303:X *1460:D 4.92875 
*END

*D_NET *62 0.000343259
*CONN
*I *1461:D I *D sky130_fd_sc_hd__dfxtp_1
*I *1305:X O *D sky130_fd_sc_hd__clkbuf_1
*CAP
1 *1461:D 0.000126032
2 *1305:X 0.000126032
3 *1461:D *1305:A 7.68237e-05
4 *1461:D *1461:CLK 0
5 *1461:D *413:32 1.43717e-05
*RES
1 *1305:X *1461:D 9.42375 
*END

*D_NET *63 0.00165712
*CONN
*I *1462:D I *D sky130_fd_sc_hd__dfrtp_1
*I *1272:X O *D sky130_fd_sc_hd__a21o_1
*CAP
1 *1462:D 0.000525202
2 *1272:X 0.000525202
3 *1462:D *1398:A 0
4 *1462:D *1557:A 1.03423e-05
5 *1462:D *1645:A 1.4389e-05
6 *1462:D *1647:A 0.000581986
7 *1462:D *426:10 0
*RES
1 *1272:X *1462:D 14.55 
*END

*D_NET *64 0.00063118
*CONN
*I *1463:D I *D sky130_fd_sc_hd__dfrtp_1
*I *1270:X O *D sky130_fd_sc_hd__a21o_1
*CAP
1 *1463:D 0.000241545
2 *1270:X 0.000241545
3 *1463:D *1208:A 3.51072e-05
4 *1463:D *1209:A2 3.91427e-06
5 *1463:D *1518:CLK 1.18308e-05
6 *1463:D *160:113 7.03219e-05
7 *1463:D *299:135 2.69153e-05
*RES
1 *1270:X *1463:D 10.605 
*END

*D_NET *65 0.00091178
*CONN
*I *1464:D I *D sky130_fd_sc_hd__dfrtp_1
*I *1268:X O *D sky130_fd_sc_hd__clkbuf_1
*CAP
1 *1464:D 0.000339252
2 *1268:X 0.000339252
3 *1464:D *1268:A 0.000162427
4 *1464:D *1402:A0 7.08493e-05
*RES
1 *1268:X *1464:D 13.14 
*END

*D_NET *66 0.000332837
*CONN
*I *1465:D I *D sky130_fd_sc_hd__dfrtp_1
*I *1259:X O *D sky130_fd_sc_hd__clkbuf_1
*CAP
1 *1465:D 7.59911e-05
2 *1259:X 7.59911e-05
3 *1465:D *1216:B1 3.01092e-05
4 *1465:D *1258:A1 8.57967e-05
5 *1465:D *1300:A1 1.19928e-05
6 *1465:D *1465:CLK 2.68464e-05
7 *1465:D *466:18 2.61093e-05
*RES
1 *1259:X *1465:D 5.045 
*END

*D_NET *67 0.00027897
*CONN
*I *1466:D I *D sky130_fd_sc_hd__dfrtp_1
*I *1250:X O *D sky130_fd_sc_hd__clkbuf_1
*CAP
1 *1466:D 0.000106718
2 *1250:X 0.000106718
3 *1466:D *1648:A 6.55328e-05
*RES
1 *1250:X *1466:D 9.03 
*END

*D_NET *68 0.000304689
*CONN
*I *1467:D I *D sky130_fd_sc_hd__dfrtp_1
*I *1241:X O *D sky130_fd_sc_hd__clkbuf_1
*CAP
1 *1467:D 0.000104712
2 *1241:X 0.000104712
3 *1467:D *1423:A 0
4 *1467:D *309:95 9.52646e-05
*RES
1 *1241:X *1467:D 5.045 
*END

*D_NET *69 0.000464776
*CONN
*I *1468:D I *D sky130_fd_sc_hd__dfrtp_1
*I *1232:X O *D sky130_fd_sc_hd__clkbuf_1
*CAP
1 *1468:D 0.000153399
2 *1232:X 0.000153399
3 *1468:D *1640:A 3.94592e-05
4 *1468:D *1648:A 0.00011852
*RES
1 *1232:X *1468:D 9.72 
*END

*D_NET *70 0.000299868
*CONN
*I *1469:D I *D sky130_fd_sc_hd__dfrtp_1
*I *1223:X O *D sky130_fd_sc_hd__clkbuf_1
*CAP
1 *1469:D 9.06706e-05
2 *1223:X 9.06706e-05
3 *1469:D *1648:A 0.000118527
*RES
1 *1223:X *1469:D 9.03 
*END

*D_NET *71 0.000419965
*CONN
*I *1470:D I *D sky130_fd_sc_hd__dfrtp_1
*I *1214:X O *D sky130_fd_sc_hd__clkbuf_1
*CAP
1 *1470:D 9.49621e-05
2 *1214:X 9.49621e-05
3 *1470:D *1213:S 6.23967e-05
4 *1470:D *331:133 2.68526e-05
5 *1470:D *413:20 4.89362e-05
6 *1470:D *488:16 9.18556e-05
*RES
1 *1214:X *1470:D 9.225 
*END

*D_NET *72 0.000352486
*CONN
*I *1471:D I *D sky130_fd_sc_hd__dfrtp_1
*I *1205:X O *D sky130_fd_sc_hd__clkbuf_1
*CAP
1 *1471:D 7.85281e-05
2 *1205:X 7.85281e-05
3 *1471:D *1206:A1 6.5525e-05
4 *1471:D *331:38 0.000118513
5 *1471:D *413:32 1.1392e-05
*RES
1 *1205:X *1471:D 9.03 
*END

*D_NET *73 0.000275323
*CONN
*I *1472:D I *D sky130_fd_sc_hd__dfrtp_1
*I *1187:X O *D sky130_fd_sc_hd__xor2_1
*CAP
1 *1472:D 4.67535e-05
2 *1187:X 4.67535e-05
3 *1472:D *1187:B 9.53743e-05
4 *1472:D *159:14 8.64421e-05
*RES
1 *1187:X *1472:D 4.685 
*END

*D_NET *74 0.000908876
*CONN
*I *1473:D I *D sky130_fd_sc_hd__dfrtp_1
*I *1185:X O *D sky130_fd_sc_hd__o21ba_1
*CAP
1 *1473:D 0.000262946
2 *1185:X 0.000262946
3 *1473:D *1178:B 7.03219e-05
4 *1473:D *1182:A2 0
5 *1473:D *1186:B1 7.03219e-05
6 *1473:D *1473:CLK 8.73589e-05
7 *1473:D *152:95 0.000154982
*RES
1 *1185:X *1473:D 11.4 
*END

*D_NET *75 0.00057562
*CONN
*I *1474:D I *D sky130_fd_sc_hd__dfrtp_4
*I *1183:X O *D sky130_fd_sc_hd__o21ba_1
*CAP
1 *1474:D 0.000224812
2 *1183:X 0.000224812
3 *1474:D *1276:A 3.39052e-05
4 *1474:D *1637:A 9.20907e-05
*RES
1 *1183:X *1474:D 10.155 
*END

*D_NET *76 0.000967991
*CONN
*I *1475:D I *D sky130_fd_sc_hd__dfrtp_2
*I *1180:X O *D sky130_fd_sc_hd__xor2_1
*CAP
1 *1475:D 0.000288317
2 *1180:X 0.000288317
3 *1475:D *1317:A 4.77719e-05
4 *1475:D *159:14 0.000159464
5 *1475:D *329:18 0.000137779
6 *1475:RESET_B *1475:D 4.63425e-05
*RES
1 *1180:X *1475:D 12.3 
*END

*D_NET *77 0.00102641
*CONN
*I *1476:D I *D sky130_fd_sc_hd__dfrtp_4
*I *1170:Y O *D sky130_fd_sc_hd__nor2_1
*CAP
1 *1476:D 0.000395039
2 *1170:Y 0.000395039
3 *1476:D *1170:A 8.07231e-05
4 *1476:D *1321:A 1.52352e-05
5 *1476:D *1476:CLK 2.78574e-05
6 *1476:D *515:14 0.000112513
*RES
1 *1170:Y *1476:D 12.435 
*END

*D_NET *78 0.000268045
*CONN
*I *1477:D I *D sky130_fd_sc_hd__dfrtp_4
*I *1168:Y O *D sky130_fd_sc_hd__nor2_1
*CAP
1 *1477:D 9.20842e-05
2 *1168:Y 9.20842e-05
3 *1477:D *1168:A 8.3877e-05
4 *1477:D *244:21 0
*RES
1 *1168:Y *1477:D 8.775 
*END

*D_NET *79 0.0003387
*CONN
*I *1478:D I *D sky130_fd_sc_hd__dfrtp_4
*I *1164:X O *D sky130_fd_sc_hd__clkbuf_1
*CAP
1 *1478:D 0.000122096
2 *1164:X 0.000122096
3 *1478:D *1161:B 1.4399e-05
4 *1478:D *1478:CLK 4.82863e-05
5 *1478:D *499:8 3.18219e-05
*RES
1 *1164:X *1478:D 9.225 
*END

*D_NET *80 0.00102643
*CONN
*I *1479:D I *D sky130_fd_sc_hd__dfrtp_2
*I *1161:Y O *D sky130_fd_sc_hd__xnor2_1
*CAP
1 *1479:D 0.0004494
2 *1161:Y 0.0004494
3 *1479:D *1637:A 6.47516e-05
4 *1479:D *444:12 6.28765e-05
*RES
1 *1161:Y *1479:D 12.825 
*END

*D_NET *81 0.000555927
*CONN
*I *1480:D I *D sky130_fd_sc_hd__dfxtp_1
*I *1330:X O *D sky130_fd_sc_hd__clkbuf_1
*CAP
1 *1480:D 0.000219838
2 *1330:X 0.000219838
3 *1480:D *1258:S 4.67041e-05
4 *1480:D *1329:S 3.70519e-05
5 *1480:D *1330:A 3.24942e-05
*RES
1 *1330:X *1480:D 10.4587 
*END

*D_NET *82 0.000941987
*CONN
*I *1481:D I *D sky130_fd_sc_hd__dfxtp_1
*I *1332:X O *D sky130_fd_sc_hd__clkbuf_1
*CAP
1 *1481:D 0.00012172
2 *1332:X 0.00012172
3 *1481:D *1230:A2 8.4878e-05
4 *1481:D *1298:A1 2.65814e-06
5 *1481:D *1332:A 0.000261009
6 *1481:D *165:171 0.000177148
7 *1481:D *288:100 8.70115e-05
8 *1481:D *333:98 8.58415e-05
*RES
1 *1332:X *1481:D 11.3138 
*END

*D_NET *83 0.00206972
*CONN
*I *1482:D I *D sky130_fd_sc_hd__dfxtp_1
*I *1334:X O *D sky130_fd_sc_hd__clkbuf_1
*CAP
1 *1482:D 0.000282736
2 *1334:X 0.000282736
3 *1482:D *1334:A 0.000426195
4 *1482:D *1406:A1 0.00021994
5 *1482:D *1545:A 0.000304474
6 *1482:D *336:34 2.6657e-05
7 *1482:D *336:40 0.000110161
8 *1482:D *433:50 0.000416817
*RES
1 *1334:X *1482:D 11.8287 
*END

*D_NET *84 0.00116694
*CONN
*I *1483:D I *D sky130_fd_sc_hd__dfxtp_1
*I *1336:X O *D sky130_fd_sc_hd__clkbuf_1
*CAP
1 *1483:D 0.000471087
2 *1336:X 0.000471087
3 *1483:D *1234:B1 0
4 *1483:D *1283:C 9.60582e-07
5 *1483:D *1409:A 5.06989e-05
6 *1483:D *1483:CLK 3.60024e-06
7 *1483:D *1515:D 0.000164679
8 *1483:D *165:171 0
9 *1483:D *425:28 4.82319e-06
*RES
1 *1336:X *1483:D 14.1938 
*END

*D_NET *85 0.000499418
*CONN
*I *1484:D I *D sky130_fd_sc_hd__dfxtp_1
*I *1338:X O *D sky130_fd_sc_hd__clkbuf_1
*CAP
1 *1484:D 0.000135097
2 *1338:X 0.000135097
3 *1484:D *1230:B2 9.47454e-05
4 *1484:D *1543:A 4.75576e-05
5 *1484:D *254:82 6.71882e-05
6 *1484:D *438:75 5.36069e-06
7 *1484:D *455:48 1.43717e-05
*RES
1 *1338:X *1484:D 9.60375 
*END

*D_NET *86 0.000315722
*CONN
*I *1485:D I *D sky130_fd_sc_hd__dfxtp_1
*I *1340:X O *D sky130_fd_sc_hd__clkbuf_1
*CAP
1 *1485:D 0.000111741
2 *1340:X 0.000111741
3 *1485:D *1258:S 8.73389e-06
4 *1485:D *1340:A 8.35068e-05
*RES
1 *1340:X *1485:D 4.92875 
*END

*D_NET *87 0.000295095
*CONN
*I *1486:D I *D sky130_fd_sc_hd__dfxtp_1
*I *1342:X O *D sky130_fd_sc_hd__clkbuf_1
*CAP
1 *1486:D 0.000116607
2 *1342:X 0.000116607
3 *1486:D *1342:A 1.41095e-05
4 *1486:D *1486:CLK 4.77719e-05
5 *1486:D *1584:A 0
*RES
1 *1342:X *1486:D 4.92875 
*END

*D_NET *88 0.000670891
*CONN
*I *1487:D I *D sky130_fd_sc_hd__dfxtp_1
*I *1344:X O *D sky130_fd_sc_hd__clkbuf_1
*CAP
1 *1487:D 8.28185e-05
2 *1344:X 8.28185e-05
3 *1487:D *1204:A1 9.30787e-05
4 *1487:D *1207:A2 0.00020525
5 *1487:D *488:51 0.000206926
*RES
1 *1344:X *1487:D 10.1888 
*END

*D_NET *89 0.000387682
*CONN
*I *1488:D I *D sky130_fd_sc_hd__dfxtp_1
*I *1348:X O *D sky130_fd_sc_hd__clkbuf_1
*CAP
1 *1488:D 0.00015756
2 *1348:X 0.00015756
3 *1488:D *1351:S 4.82319e-06
4 *1488:D *1488:CLK 4.43871e-06
5 *1488:D *167:84 4.89295e-05
6 *1488:D *319:84 0
7 *1488:D *339:14 1.43717e-05
*RES
1 *1348:X *1488:D 9.42375 
*END

*D_NET *90 0.000336598
*CONN
*I *1489:D I *D sky130_fd_sc_hd__dfxtp_1
*I *1350:X O *D sky130_fd_sc_hd__clkbuf_1
*CAP
1 *1489:D 0.00012511
2 *1350:X 0.00012511
3 *1489:D *1648:A 5.63405e-05
4 *1489:D *163:24 0
5 *1489:D *333:39 3.00381e-05
*RES
1 *1350:X *1489:D 9.42375 
*END

*D_NET *91 0.000500336
*CONN
*I *1490:D I *D sky130_fd_sc_hd__dfxtp_1
*I *1352:X O *D sky130_fd_sc_hd__clkbuf_1
*CAP
1 *1490:D 7.48547e-05
2 *1352:X 7.48547e-05
3 *1490:D *1352:A 5.4037e-05
4 *1490:D *1490:CLK 0.000111993
5 *1490:D *158:135 0.000184597
*RES
1 *1352:X *1490:D 5.78375 
*END

*D_NET *92 0.000230285
*CONN
*I *1491:D I *D sky130_fd_sc_hd__dfxtp_1
*I *1354:X O *D sky130_fd_sc_hd__clkbuf_1
*CAP
1 *1491:D 9.12267e-05
2 *1354:X 9.12267e-05
3 *1491:D *1283:B 1.46262e-05
4 *1491:D *1637:A 3.32056e-05
*RES
1 *1354:X *1491:D 8.80875 
*END

*D_NET *93 0.000766281
*CONN
*I *1492:D I *D sky130_fd_sc_hd__dfxtp_1
*I *1356:X O *D sky130_fd_sc_hd__clkbuf_1
*CAP
1 *1492:D 0.000232041
2 *1356:X 0.000232041
3 *1492:D *1314:A 4.82319e-06
4 *1492:D *1355:A0 3.86607e-05
5 *1492:D *1615:A 9.50342e-06
6 *1492:D *1640:A 0.000141599
7 *1492:D *163:45 0
8 *1492:D *421:10 8.65905e-05
9 *1492:D *455:25 2.10214e-05
*RES
1 *1356:X *1492:D 11.1488 
*END

*D_NET *94 0.000281428
*CONN
*I *1493:D I *D sky130_fd_sc_hd__dfxtp_1
*I *1358:X O *D sky130_fd_sc_hd__clkbuf_1
*CAP
1 *1493:D 8.86806e-05
2 *1358:X 8.86806e-05
3 *1493:D *172:98 0
4 *1493:D *328:20 5.20335e-05
5 *1493:D *335:16 5.20335e-05
*RES
1 *1358:X *1493:D 8.80875 
*END

*D_NET *95 0.00057694
*CONN
*I *1494:D I *D sky130_fd_sc_hd__dfxtp_1
*I *1360:X O *D sky130_fd_sc_hd__clkbuf_1
*CAP
1 *1494:D 0.000101642
2 *1360:X 0.000101642
3 *1494:D *1193:A1 0.00013475
4 *1494:D *268:67 4.32354e-05
5 *1494:D *268:75 7.27587e-05
6 *1494:D *331:34 0.000122911
*RES
1 *1360:X *1494:D 10.0087 
*END

*D_NET *96 0.000379232
*CONN
*I *1495:D I *D sky130_fd_sc_hd__dfxtp_1
*I *1362:X O *D sky130_fd_sc_hd__clkbuf_1
*CAP
1 *1495:D 6.90701e-05
2 *1362:X 6.90701e-05
3 *1495:D *1362:A 3.0933e-05
4 *1495:D *1495:CLK 0.000109537
5 *1495:D *268:67 0.000100621
*RES
1 *1362:X *1495:D 5.78 
*END

*D_NET *97 0.00210115
*CONN
*I *1496:D I *D sky130_fd_sc_hd__dfxtp_1
*I *1366:X O *D sky130_fd_sc_hd__clkbuf_1
*CAP
1 *1496:D 0.000563777
2 *1366:X 0.000563777
3 *1496:D *1366:A 2.69217e-05
4 *1496:D *1438:S 0.000345539
5 *1496:D *1439:A 0.00012398
6 *1496:D *1575:A 0.000196029
7 *1496:D *1638:A 0.000158213
8 *1496:D *319:84 7.1624e-05
9 *1496:D *319:104 4.77807e-05
10 *1496:D *336:87 3.51254e-06
*RES
1 *1366:X *1496:D 17.9737 
*END

*D_NET *98 0.000554708
*CONN
*I *1497:D I *D sky130_fd_sc_hd__dfxtp_1
*I *1368:X O *D sky130_fd_sc_hd__clkbuf_1
*CAP
1 *1497:D 0.000206335
2 *1368:X 0.000206335
3 *1497:D *1228:A2 2.97923e-05
4 *1497:D *1228:B1 7.71385e-05
5 *1497:D *1368:A 3.51072e-05
*RES
1 *1368:X *1497:D 10.35 
*END

*D_NET *99 0.000532455
*CONN
*I *1498:D I *D sky130_fd_sc_hd__dfxtp_1
*I *1370:X O *D sky130_fd_sc_hd__clkbuf_1
*CAP
1 *1498:D 0.00018103
2 *1370:X 0.00018103
3 *1498:D *1255:B2 6.83917e-05
4 *1498:D *1442:A1 1.43717e-05
5 *1498:D *1498:CLK 1.43717e-05
6 *1498:D *175:86 7.32598e-05
*RES
1 *1370:X *1498:D 10.5037 
*END

*D_NET *100 0.00032184
*CONN
*I *1499:D I *D sky130_fd_sc_hd__dfxtp_1
*I *1372:X O *D sky130_fd_sc_hd__clkbuf_1
*CAP
1 *1499:D 8.64912e-05
2 *1372:X 8.64912e-05
3 *1499:D *1372:A 0.000148858
*RES
1 *1372:X *1499:D 4.92875 
*END

*D_NET *101 0.000702326
*CONN
*I *1500:D I *D sky130_fd_sc_hd__dfxtp_1
*I *1374:X O *D sky130_fd_sc_hd__clkbuf_1
*CAP
1 *1500:D 0.000181861
2 *1374:X 0.000181861
3 *1500:D *1277:A 0.0001323
4 *1500:D *1446:A0 0.000156198
5 *1500:D *334:104 5.01066e-05
6 *1500:D *422:14 0
*RES
1 *1374:X *1500:D 11.6138 
*END

*D_NET *102 0.00044679
*CONN
*I *1501:D I *D sky130_fd_sc_hd__dfxtp_1
*I *1376:X O *D sky130_fd_sc_hd__clkbuf_1
*CAP
1 *1501:D 0.000103973
2 *1376:X 0.000103973
3 *1501:D *1448:A0 0
4 *1501:D *165:82 2.50284e-05
5 *1501:D *268:86 0.000139238
6 *1501:D *332:46 7.45772e-05
*RES
1 *1376:X *1501:D 9.555 
*END

*D_NET *103 0.000550032
*CONN
*I *1502:D I *D sky130_fd_sc_hd__dfxtp_1
*I *1378:X O *D sky130_fd_sc_hd__clkbuf_1
*CAP
1 *1502:D 0.000104274
2 *1378:X 0.000104274
3 *1502:D *1502:CLK 0.000122917
4 *1502:D *319:38 0.000109284
5 *1502:D *332:10 7.9642e-06
6 *1502:D *332:29 0.000101319
*RES
1 *1378:X *1502:D 9.75375 
*END

*D_NET *104 0.000263492
*CONN
*I *1503:D I *D sky130_fd_sc_hd__dfxtp_1
*I *1380:X O *D sky130_fd_sc_hd__clkbuf_1
*CAP
1 *1503:D 8.80255e-05
2 *1380:X 8.80255e-05
3 *1503:D *1540:A 3.59997e-05
4 *1503:D *163:197 5.14416e-05
*RES
1 *1380:X *1503:D 8.80875 
*END

*D_NET *105 0.00203803
*CONN
*I *1504:D I *D sky130_fd_sc_hd__dfxtp_1
*I *1384:X O *D sky130_fd_sc_hd__clkbuf_1
*CAP
1 *1504:D 0.000641486
2 *1384:X 0.000641486
3 *1504:D *1348:A 2.45498e-05
4 *1504:D *1383:A1 0.000119625
5 *1504:D *1383:S 4.11071e-05
6 *1504:D *176:77 0
7 *1504:D *345:12 0.000496927
8 *1504:D *438:96 7.28466e-05
*RES
1 *1384:X *1504:D 18.2288 
*END

*D_NET *106 0.000547083
*CONN
*I *1505:D I *D sky130_fd_sc_hd__dfxtp_1
*I *1386:X O *D sky130_fd_sc_hd__clkbuf_1
*CAP
1 *1505:D 0.000198658
2 *1386:X 0.000198658
3 *1505:D *1386:A 0
4 *1505:D *1455:CLK 0.000111831
5 *1505:D *268:37 3.79351e-05
*RES
1 *1386:X *1505:D 10.2487 
*END

*D_NET *107 0.000253842
*CONN
*I *1506:D I *D sky130_fd_sc_hd__dfxtp_1
*I *1388:X O *D sky130_fd_sc_hd__clkbuf_1
*CAP
1 *1506:D 7.24711e-05
2 *1388:X 7.24711e-05
3 *1506:D *1230:A2 4.63004e-05
4 *1506:D *219:20 4.88854e-05
5 *1506:D *245:85 4.82319e-06
6 *1506:D *288:100 8.89101e-06
*RES
1 *1388:X *1506:D 8.97375 
*END

*D_NET *108 0.000603005
*CONN
*I *1507:D I *D sky130_fd_sc_hd__dfxtp_1
*I *1390:X O *D sky130_fd_sc_hd__clkbuf_1
*CAP
1 *1507:D 0.000214111
2 *1390:X 0.000214111
3 *1507:D *1233:B2 0.000111831
4 *1507:D *219:20 1.24292e-05
5 *1507:D *268:37 5.05228e-05
6 *1507:D *444:31 0
*RES
1 *1390:X *1507:D 10.4888 
*END

*D_NET *109 0.000550886
*CONN
*I *1508:D I *D sky130_fd_sc_hd__dfxtp_1
*I *1392:X O *D sky130_fd_sc_hd__clkbuf_1
*CAP
1 *1508:D 0.000111717
2 *1392:X 0.000111717
3 *1508:D *1231:A1 0.0001243
4 *1508:D *163:45 0.000112153
5 *1508:D *333:16 7.53557e-05
6 *1508:D *455:25 1.56428e-05
*RES
1 *1392:X *1508:D 9.75 
*END

*D_NET *110 0.00161832
*CONN
*I *1509:D I *D sky130_fd_sc_hd__dfxtp_1
*I *1394:X O *D sky130_fd_sc_hd__clkbuf_1
*CAP
1 *1509:D 0.000414057
2 *1394:X 0.000414057
3 *1509:D *1215:B2 6.55184e-05
4 *1509:D *1258:A1 0.000383419
5 *1509:D *1394:A 0.000114492
6 *1509:D *319:84 6.28687e-05
7 *1509:D *335:16 0.000119756
8 *1509:D *350:6 4.41506e-05
*RES
1 *1394:X *1509:D 14.7 
*END

*D_NET *111 0.000283716
*CONN
*I *1510:D I *D sky130_fd_sc_hd__dfxtp_1
*I *1396:X O *D sky130_fd_sc_hd__clkbuf_1
*CAP
1 *1510:D 8.75301e-05
2 *1396:X 8.75301e-05
3 *1510:D *1652:A 9.42843e-05
4 *1510:D *331:46 1.43717e-05
*RES
1 *1396:X *1510:D 8.97375 
*END

*D_NET *112 0.000411699
*CONN
*I *1511:D I *D sky130_fd_sc_hd__dfxtp_1
*I *1398:X O *D sky130_fd_sc_hd__clkbuf_1
*CAP
1 *1511:D 6.56133e-05
2 *1398:X 6.56133e-05
3 *1511:D *1462:CLK 2.30292e-05
4 *1511:D *1511:CLK 5.82919e-05
5 *1511:D *288:38 0.000104945
6 *1511:D *331:48 9.42072e-05
*RES
1 *1398:X *1511:D 5.78 
*END

*D_NET *113 0.000366474
*CONN
*I *1512:D I *D sky130_fd_sc_hd__dfxtp_1
*I *1403:X O *D sky130_fd_sc_hd__clkbuf_1
*CAP
1 *1512:D 0.000128208
2 *1403:X 0.000128208
3 *1512:D *1262:A 0.000110059
4 *1512:D *1576:A 0
*RES
1 *1403:X *1512:D 5.27375 
*END

*D_NET *114 0.000245511
*CONN
*I *1513:D I *D sky130_fd_sc_hd__dfxtp_1
*I *1405:X O *D sky130_fd_sc_hd__clkbuf_1
*CAP
1 *1513:D 0.000102487
2 *1405:X 0.000102487
3 *1513:D *1405:A 4.05358e-05
*RES
1 *1405:X *1513:D 8.91375 
*END

*D_NET *115 0.001007
*CONN
*I *1514:D I *D sky130_fd_sc_hd__dfxtp_1
*I *1407:X O *D sky130_fd_sc_hd__clkbuf_1
*CAP
1 *1514:D 0.000282682
2 *1407:X 0.000282682
3 *1514:D *1247:C1 0
4 *1514:D *1424:A0 0.000203178
5 *1514:D *1522:D 6.30388e-05
6 *1514:D *1638:A 5.01066e-05
7 *1514:D *175:78 3.1522e-05
8 *1514:D *336:55 9.37898e-05
*RES
1 *1407:X *1514:D 12.4087 
*END

*D_NET *116 0.000444567
*CONN
*I *1515:D I *D sky130_fd_sc_hd__dfxtp_1
*I *1409:X O *D sky130_fd_sc_hd__clkbuf_1
*CAP
1 *1515:D 0.000102011
2 *1409:X 0.000102011
3 *1515:D *165:171 0
4 *1515:D *330:50 7.58658e-05
5 *1483:D *1515:D 0.000164679
*RES
1 *1409:X *1515:D 9.57375 
*END

*D_NET *117 0.000232746
*CONN
*I *1516:D I *D sky130_fd_sc_hd__dfxtp_1
*I *1411:X O *D sky130_fd_sc_hd__clkbuf_1
*CAP
1 *1516:D 0.000108526
2 *1411:X 0.000108526
3 *1516:D *1284:A 0
4 *1516:D *334:32 1.5693e-05
*RES
1 *1411:X *1516:D 8.80875 
*END

*D_NET *118 0.000584694
*CONN
*I *1517:D I *D sky130_fd_sc_hd__dfxtp_1
*I *1413:X O *D sky130_fd_sc_hd__clkbuf_1
*CAP
1 *1517:D 0.000192372
2 *1413:X 0.000192372
3 *1517:D *1218:A2 5.48747e-05
4 *1517:D *1412:A0 5.83121e-06
5 *1517:D *1413:A 0.000139245
6 *1517:D *254:123 0
*RES
1 *1413:X *1517:D 10.6987 
*END

*D_NET *119 0.000690008
*CONN
*I *1518:D I *D sky130_fd_sc_hd__dfxtp_1
*I *1415:X O *D sky130_fd_sc_hd__clkbuf_1
*CAP
1 *1518:D 0.000289723
2 *1415:X 0.000289723
3 *1518:D *1270:A1 3.89366e-05
4 *1518:D *413:20 7.1624e-05
*RES
1 *1415:X *1518:D 11.8387 
*END

*D_NET *120 0.000256686
*CONN
*I *1519:D I *D sky130_fd_sc_hd__dfxtp_1
*I *1417:X O *D sky130_fd_sc_hd__clkbuf_1
*CAP
1 *1519:D 0.000122905
2 *1417:X 0.000122905
3 *1519:D *1417:A 1.08758e-05
*RES
1 *1417:X *1519:D 4.92875 
*END

*D_NET *121 0.000327622
*CONN
*I *1520:D I *D sky130_fd_sc_hd__dfxtp_1
*I *1421:X O *D sky130_fd_sc_hd__clkbuf_1
*CAP
1 *1520:D 4.81559e-05
2 *1421:X 4.81559e-05
3 *1520:D *1421:A 7.63204e-05
4 *1520:D *160:154 9.26175e-06
5 *1520:D *175:74 0.000140905
6 *1520:D *336:144 4.82319e-06
*RES
1 *1421:X *1520:D 8.97375 
*END

*D_NET *122 0.000310425
*CONN
*I *1521:D I *D sky130_fd_sc_hd__dfxtp_1
*I *1423:X O *D sky130_fd_sc_hd__clkbuf_1
*CAP
1 *1521:D 8.70258e-05
2 *1423:X 8.70258e-05
3 *1521:D *1241:A 7.4027e-05
4 *1521:D *1257:B2 3.4222e-05
5 *1521:D *254:82 1.75904e-05
6 *1521:D *299:46 1.05337e-05
*RES
1 *1423:X *1521:D 9.06 
*END

*D_NET *123 0.000903773
*CONN
*I *1522:D I *D sky130_fd_sc_hd__dfxtp_1
*I *1425:X O *D sky130_fd_sc_hd__clkbuf_1
*CAP
1 *1522:D 0.000277169
2 *1425:X 0.000277169
3 *1522:D *1247:C1 0
4 *1522:D *1265:A2 5.89757e-06
5 *1522:D *1425:A 0
6 *1522:D *1582:A 7.70553e-06
7 *1522:D *299:80 9.47661e-05
8 *1522:D *336:55 0.000178027
9 *1514:D *1522:D 6.30388e-05
*RES
1 *1425:X *1522:D 12.3638 
*END

*D_NET *124 0.00104027
*CONN
*I *1523:D I *D sky130_fd_sc_hd__dfxtp_1
*I *1427:X O *D sky130_fd_sc_hd__clkbuf_1
*CAP
1 *1523:D 0.000216163
2 *1427:X 0.000216163
3 *1523:D *258:40 0.000164377
4 *1523:D *278:61 0.00031682
5 *1523:D *309:23 0.000126751
*RES
1 *1427:X *1523:D 13.0837 
*END

*D_NET *125 0.000413363
*CONN
*I *1524:D I *D sky130_fd_sc_hd__dfxtp_1
*I *1429:X O *D sky130_fd_sc_hd__clkbuf_1
*CAP
1 *1524:D 6.98078e-05
2 *1429:X 6.98078e-05
3 *1524:D *1227:A2 9.03376e-05
4 *1524:D *1254:A2 9.03376e-05
5 *1524:D *1277:A 9.30717e-05
6 *1524:D *334:21 0
*RES
1 *1429:X *1524:D 9.15375 
*END

*D_NET *126 0.00034742
*CONN
*I *1525:D I *D sky130_fd_sc_hd__dfxtp_1
*I *1431:X O *D sky130_fd_sc_hd__clkbuf_1
*CAP
1 *1525:D 0.000115271
2 *1431:X 0.000115271
3 *1525:D *1431:A 8.71001e-05
4 *1525:D *160:97 1.54049e-05
5 *1525:D *175:74 0
6 *1525:D *332:78 1.43717e-05
*RES
1 *1431:X *1525:D 9.22875 
*END

*D_NET *127 0.000336405
*CONN
*I *1526:D I *D sky130_fd_sc_hd__dfxtp_1
*I *1433:X O *D sky130_fd_sc_hd__clkbuf_1
*CAP
1 *1526:D 0.000153192
2 *1433:X 0.000153192
3 *1526:D *1211:C1 3.00216e-05
4 *1526:D *1375:S 0
5 *1526:D *309:56 0
*RES
1 *1433:X *1526:D 9.555 
*END

*D_NET *128 0.000477363
*CONN
*I *1527:D I *D sky130_fd_sc_hd__dfxtp_1
*I *1435:X O *D sky130_fd_sc_hd__clkbuf_1
*CAP
1 *1527:D 0.000216669
2 *1435:X 0.000216669
3 *1527:D *1201:A1 0
4 *1527:D *1434:S 0
5 *1527:D *1435:A 4.40241e-05
*RES
1 *1435:X *1527:D 10.35 
*END

*D_NET *129 0.000401602
*CONN
*I *1528:D I *D sky130_fd_sc_hd__dfxtp_1
*I *1439:X O *D sky130_fd_sc_hd__clkbuf_1
*CAP
1 *1528:D 0.00015199
2 *1439:X 0.00015199
3 *1528:D *1365:S 5.03256e-05
4 *1528:D *319:104 4.72976e-05
*RES
1 *1439:X *1528:D 10.0087 
*END

*D_NET *130 0.000240471
*CONN
*I *1529:D I *D sky130_fd_sc_hd__dfxtp_1
*I *1441:X O *D sky130_fd_sc_hd__clkbuf_1
*CAP
1 *1529:D 9.91066e-05
2 *1441:X 9.91066e-05
3 *1529:D *1374:A 0
4 *1529:D *1529:CLK 4.22574e-05
*RES
1 *1441:X *1529:D 8.97375 
*END

*D_NET *131 0.000337093
*CONN
*I *1530:D I *D sky130_fd_sc_hd__dfxtp_1
*I *1443:X O *D sky130_fd_sc_hd__clkbuf_1
*CAP
1 *1530:D 9.66539e-05
2 *1443:X 9.66539e-05
3 *1530:D *1246:B2 1.86443e-05
4 *1530:D *1255:B2 6.03814e-05
5 *1530:D *1443:A 6.47594e-05
*RES
1 *1443:X *1530:D 9.21 
*END

*D_NET *132 0.000463106
*CONN
*I *1531:D I *D sky130_fd_sc_hd__dfxtp_1
*I *1445:X O *D sky130_fd_sc_hd__clkbuf_1
*CAP
1 *1531:D 0.000130932
2 *1445:X 0.000130932
3 *1531:D *1445:A 8.62352e-05
4 *1531:D *1531:CLK 5.11655e-05
5 *1531:D *172:26 4.89395e-05
6 *1531:D *175:14 1.49019e-05
*RES
1 *1445:X *1531:D 10.0387 
*END

*D_NET *133 0.000810359
*CONN
*I *1532:D I *D sky130_fd_sc_hd__dfxtp_1
*I *1447:X O *D sky130_fd_sc_hd__clkbuf_1
*CAP
1 *1532:D 0.000186246
2 *1447:X 0.000186246
3 *1532:D *1532:CLK 0.000312304
4 *1532:D *334:86 3.32056e-05
5 *1532:D *422:14 9.23578e-05
*RES
1 *1447:X *1532:D 11.2238 
*END

*D_NET *134 0.000339299
*CONN
*I *1533:D I *D sky130_fd_sc_hd__dfxtp_1
*I *1449:X O *D sky130_fd_sc_hd__clkbuf_1
*CAP
1 *1533:D 0.000133363
2 *1449:X 0.000133363
3 *1533:D *1236:B1 4.82319e-06
4 *1533:D *1448:A0 0
5 *1533:D *1533:CLK 1.43717e-05
6 *1533:D *165:63 0
7 *1533:D *172:26 5.33787e-05
*RES
1 *1449:X *1533:D 9.42375 
*END

*D_NET *135 0.00031073
*CONN
*I *1534:D I *D sky130_fd_sc_hd__dfxtp_1
*I *1451:X O *D sky130_fd_sc_hd__clkbuf_1
*CAP
1 *1534:D 8.35938e-05
2 *1451:X 8.35938e-05
3 *1534:D *165:63 9.21008e-05
4 *1534:D *175:33 5.14416e-05
*RES
1 *1451:X *1534:D 8.80875 
*END

*D_NET *136 0.000343795
*CONN
*I *1535:D I *D sky130_fd_sc_hd__dfxtp_1
*I *1453:X O *D sky130_fd_sc_hd__clkbuf_1
*CAP
1 *1535:D 9.84803e-05
2 *1453:X 9.84803e-05
3 *1535:D *1453:A 0.000146835
*RES
1 *1453:X *1535:D 4.92875 
*END

*D_NET *137 0.00166645
*CONN
*I *1156:A I *D sky130_fd_sc_hd__or4_1
*I *1275:A I *D sky130_fd_sc_hd__xnor2_2
*I *1175:A1 I *D sky130_fd_sc_hd__o21a_1
*I *1152:X O *D sky130_fd_sc_hd__xor2_2
*CAP
1 *1156:A 0.000176549
2 *1275:A 0
3 *1175:A1 3.82365e-05
4 *1152:X 0.000105279
5 *137:21 0.000378932
6 *137:8 0.000345899
7 *1156:A *1156:B 3.64998e-06
8 *1156:A *1156:D 0.000121815
9 *1156:A *1281:A2 7.9642e-06
10 *1156:A *139:14 0.000134831
11 *1156:A *139:29 9.03508e-06
12 *1156:A *142:10 0
13 *1156:A *154:10 0
14 *1156:A *238:10 0.000136599
15 *1175:A1 *1175:B1 0.000136389
16 *1175:A1 *1176:B 5.78125e-05
17 *1175:A1 *168:38 1.34594e-05
18 *137:8 *1176:A 0
19 *137:8 *142:10 0
20 *137:21 *1175:A2 0
21 *137:21 *1176:A 0
22 *137:21 *142:10 0
*RES
1 *1152:X *137:8 4.98 
2 *137:8 *1175:A1 5.1 
3 *137:8 *137:21 2.655 
4 *137:21 *1275:A 3.6 
5 *137:21 *1156:A 7.245 
*END

*D_NET *138 0.00217315
*CONN
*I *1280:A I *D sky130_fd_sc_hd__nor3_1
*I *1282:A I *D sky130_fd_sc_hd__xor2_2
*I *1156:B I *D sky130_fd_sc_hd__or4_1
*I *1173:A1 I *D sky130_fd_sc_hd__o21a_1
*I *1153:X O *D sky130_fd_sc_hd__xor2_2
*CAP
1 *1280:A 8.07352e-05
2 *1282:A 1.23281e-05
3 *1156:B 0.000145704
4 *1173:A1 5.36094e-05
5 *1153:X 0
6 *138:30 0.000167447
7 *138:15 0.000278526
8 *138:4 0.000112048
9 *1156:B *1173:B1 0.00011852
10 *1156:B *1281:A2 9.05299e-05
11 *1156:B *1538:A 2.42236e-05
12 *1156:B *163:197 2.19562e-06
13 *1156:B *238:16 5.05437e-05
14 *1173:A1 *1173:A2 0.000231634
15 *1173:A1 *1173:B1 0.000115779
16 *1280:A *1273:A 5.4155e-06
17 *1280:A *1280:B 9.17274e-05
18 *1280:A *139:54 8.53113e-06
19 *1280:A *142:40 0
20 *1282:A *1153:A 4.00541e-06
21 *1282:A *1273:A 1.58597e-05
22 *1282:A *1282:B 4.76714e-06
23 *138:15 *1173:A2 0.000234674
24 *138:15 *1173:B1 0.000108753
25 *138:30 *1153:A 2.54522e-05
26 *138:30 *1173:A2 0.000158965
27 *138:30 *1282:B 2.75229e-05
28 *1156:A *1156:B 3.64998e-06
*RES
1 *1153:X *138:4 1.6 
2 *138:4 *1173:A1 3.79 
3 *138:4 *138:15 2.175 
4 *138:15 *1156:B 8.63 
5 *138:15 *138:30 1.83 
6 *138:30 *1282:A 1.96 
7 *138:30 *1280:A 7.085 
*END

*D_NET *139 0.00448496
*CONN
*I *1280:B I *D sky130_fd_sc_hd__nor3_1
*I *1173:A2 I *D sky130_fd_sc_hd__o21a_1
*I *1273:A I *D sky130_fd_sc_hd__or2_1
*I *1282:B I *D sky130_fd_sc_hd__xor2_2
*I *1156:C I *D sky130_fd_sc_hd__or4_1
*I *1154:Y O *D sky130_fd_sc_hd__nor2b_2
*CAP
1 *1280:B 8.83378e-05
2 *1173:A2 0.00044506
3 *1273:A 0.000272139
4 *1282:B 0.000308072
5 *1156:C 0
6 *1154:Y 0.000196588
7 *139:54 0.000596503
8 *139:29 0.000244264
9 *139:14 0.000341813
10 *1173:A2 *1173:B1 2.01411e-05
11 *1273:A *1153:A 6.75787e-05
12 *1273:A *1273:B 4.98756e-05
13 *1273:A *1652:A 1.05984e-05
14 *1273:A *435:14 0.000122801
15 *1280:B *1172:A 6.80137e-05
16 *1280:B *1281:A2 4.33323e-05
17 *1280:B *1535:CLK 0.000125262
18 *1282:B *1153:A 8.77498e-05
19 *139:14 *1157:A 8.52845e-05
20 *139:14 *167:136 0.000236643
21 *139:29 *1281:A2 0.000116165
22 *139:29 *142:40 0
23 *139:54 *1281:A2 3.57768e-05
24 *139:54 *142:40 0
25 *1156:A *139:14 0.000134831
26 *1156:A *139:29 9.03508e-06
27 *1173:A1 *1173:A2 0.000231634
28 *1280:A *1273:A 5.4155e-06
29 *1280:A *1280:B 9.17274e-05
30 *1280:A *139:54 8.53113e-06
31 *1282:A *1273:A 1.58597e-05
32 *1282:A *1282:B 4.76714e-06
33 *138:15 *1173:A2 0.000234674
34 *138:30 *1173:A2 0.000158965
35 *138:30 *1282:B 2.75229e-05
*RES
1 *1154:Y *139:14 10.025 
2 *139:14 *1156:C 1.6 
3 *139:14 *139:29 4.895 
4 *139:29 *1282:B 3.1025 
5 *1282:B *1273:A 6.1825 
6 *139:29 *139:54 0.87 
7 *139:54 *1173:A2 9.84 
8 *139:54 *1280:B 6.225 
*END

*D_NET *140 0.00346762
*CONN
*I *1280:C I *D sky130_fd_sc_hd__nor3_1
*I *1273:B I *D sky130_fd_sc_hd__or2_1
*I *1156:D I *D sky130_fd_sc_hd__or4_1
*I *1155:X O *D sky130_fd_sc_hd__and2b_1
*CAP
1 *1280:C 0.000318984
2 *1273:B 3.1462e-05
3 *1156:D 0.000200266
4 *1155:X 0.000189633
5 *140:21 0.00051188
6 *140:8 0.000551335
7 *1156:D *163:197 0.000534764
8 *1156:D *515:50 8.64421e-05
9 *1156:D *515:61 0.000150568
10 *1273:B *1652:A 0.000117411
11 *1280:C *1172:A 6.80075e-05
12 *1280:C *1535:CLK 0.000421305
13 *1280:C *1647:A 0
14 *1280:C *429:25 0
15 *140:8 *163:197 9.22294e-06
16 *140:8 *297:14 9.23819e-05
17 *140:8 *515:44 0
18 *140:21 *1172:A 0
19 *140:21 *1647:A 0
20 *140:21 *297:14 1.22676e-05
21 *140:21 *515:44 0
22 *1156:A *1156:D 0.000121815
23 *1273:A *1273:B 4.98756e-05
*RES
1 *1155:X *140:8 6.765 
2 *140:8 *1156:D 9.33 
3 *140:8 *140:21 2.4 
4 *140:21 *1273:B 4.755 
5 *140:21 *1280:C 9.75 
*END

*D_NET *141 0.00127917
*CONN
*I *1157:A I *D sky130_fd_sc_hd__clkbuf_4
*I *1156:X O *D sky130_fd_sc_hd__or4_1
*CAP
1 *1157:A 0.000225535
2 *1156:X 0.000225535
3 *1157:A *1154:A 0.000273639
4 *1157:A *1173:B1 1.92979e-05
5 *1157:A *142:8 0.000345733
6 *1157:A *142:10 5.18317e-06
7 *1157:A *142:40 6.54793e-05
8 *1157:A *167:136 3.3485e-05
9 *139:14 *1157:A 8.52845e-05
*RES
1 *1156:X *1157:A 13.35 
*END

*D_NET *142 0.0184051
*CONN
*I *1281:B1 I *D sky130_fd_sc_hd__o21a_1
*I *1269:A I *D sky130_fd_sc_hd__nor2_2
*I *1277:A I *D sky130_fd_sc_hd__and2_1
*I *1186:A1 I *D sky130_fd_sc_hd__o21a_4
*I *1182:A1 I *D sky130_fd_sc_hd__o2111a_1
*I *1179:A1 I *D sky130_fd_sc_hd__o211a_1
*I *1184:A1 I *D sky130_fd_sc_hd__o211a_1
*I *1165:A I *D sky130_fd_sc_hd__or2_2
*I *1159:A1 I *D sky130_fd_sc_hd__o2111a_1
*I *1157:X O *D sky130_fd_sc_hd__clkbuf_4
*CAP
1 *1281:B1 3.59094e-05
2 *1269:A 0
3 *1277:A 0.00172214
4 *1186:A1 0.000300761
5 *1182:A1 8.10766e-05
6 *1179:A1 0.000505666
7 *1184:A1 7.41156e-05
8 *1165:A 1.54342e-05
9 *1159:A1 0.000175107
10 *1157:X 0.000260667
11 *142:116 0.00205137
12 *142:73 0.000868946
13 *142:71 0.00137189
14 *142:61 0.00126332
15 *142:55 0.000360064
16 *142:40 0.000769076
17 *142:10 0.000421956
18 *142:8 0.00100805
19 *1159:A1 *1322:A 0
20 *1159:A1 *515:44 0.000218113
21 *1165:A *268:26 4.77719e-05
22 *1165:A *516:59 1.26985e-05
23 *1179:A1 *1179:B1 5.63405e-05
24 *1179:A1 *1182:C1 0
25 *1179:A1 *1187:A 0
26 *1179:A1 *1187:B 4.94404e-05
27 *1179:A1 *1472:CLK 0
28 *1179:A1 *1474:CLK 0
29 *1179:A1 *157:10 0
30 *1179:A1 *159:14 2.47705e-05
31 *1179:A1 *163:154 0.00017852
32 *1179:A1 *329:18 0
33 *1179:A1 *512:12 0.000202781
34 *1182:A1 *1182:A2 1.53177e-05
35 *1182:A1 *1473:CLK 4.77769e-05
36 *1184:A1 *176:24 2.50484e-05
37 *1186:A1 *1182:A2 0.000115749
38 *1186:A1 *1186:A2 8.52137e-06
39 *1186:A1 *1186:B1 4.60814e-05
40 *1186:A1 *163:154 8.73389e-06
41 *1186:A1 *437:48 5.84997e-05
42 *1277:A *1224:A2 0
43 *1277:A *1225:B1 0
44 *1277:A *1227:A2 0.000200486
45 *1277:A *1230:B2 0.000464321
46 *1277:A *1252:A1 0
47 *1277:A *1292:A0 4.03077e-06
48 *1277:A *1293:A 0.000127985
49 *1277:A *1297:A 9.50342e-06
50 *1277:A *1404:A0 0
51 *1277:A *1484:CLK 0
52 *1277:A *1543:A 0
53 *1277:A *158:135 0.000114618
54 *1277:A *167:38 0
55 *1277:A *288:100 0
56 *1277:A *328:83 0
57 *1277:A *334:21 0
58 *1277:A *334:86 0
59 *1277:A *425:55 0.000472855
60 *1277:A *437:122 6.14235e-05
61 *1281:B1 *1281:A1 7.44125e-05
62 *142:8 *1154:A 2.16917e-05
63 *142:10 *515:44 0.00036852
64 *142:40 *1153:A 2.13396e-05
65 *142:40 *1172:A 0.000247567
66 *142:40 *1173:B1 1.92979e-05
67 *142:40 *1184:B1 1.01864e-05
68 *142:40 *1184:C1 1.92979e-05
69 *142:40 *1281:A1 1.65955e-05
70 *142:40 *1281:A2 0
71 *142:40 *1285:B1 5.83121e-06
72 *142:40 *165:38 0
73 *142:40 *176:24 5.52603e-05
74 *142:40 *241:10 0.000111163
75 *142:40 *430:14 8.30853e-06
76 *142:40 *435:14 5.03561e-05
77 *142:40 *515:44 0.000136877
78 *142:55 *1184:A2 0.000295259
79 *142:55 *1184:B1 6.90254e-05
80 *142:55 *1281:A1 0
81 *142:55 *430:14 0
82 *142:61 *1189:A 3.75126e-05
83 *142:61 *1281:A1 4.66108e-05
84 *142:61 *160:45 8.84986e-05
85 *142:61 *165:8 4.77807e-05
86 *142:71 *1188:A 9.88331e-05
87 *142:71 *1189:A 4.89362e-05
88 *142:71 *1191:B 8.41384e-05
89 *142:71 *1191:C 1.91597e-05
90 *142:71 *152:61 0.000535766
91 *142:71 *160:45 2.27628e-05
92 *142:71 *444:31 2.01259e-05
93 *142:73 *1182:A2 0.000321871
94 *142:73 *1182:B1 6.90254e-05
95 *142:73 *163:154 4.94278e-05
96 *142:116 *1297:A 0
97 *142:116 *1457:CLK 0.000101456
98 *142:116 *328:113 0.00012369
99 *142:116 *330:10 0.000153782
100 *142:116 *437:89 0.000505999
101 *1156:A *142:10 0
102 *1157:A *142:8 0.000345733
103 *1157:A *142:10 5.18317e-06
104 *1157:A *142:40 6.54793e-05
105 *1280:A *142:40 0
106 *1500:D *1277:A 0.0001323
107 *1524:D *1277:A 9.30717e-05
108 *137:8 *142:10 0
109 *137:21 *142:10 0
110 *139:29 *142:40 0
111 *139:54 *142:40 0
*RES
1 *1157:X *142:8 7.155 
2 *142:8 *142:10 4.44 
3 *142:10 *1159:A1 6.705 
4 *142:10 *1165:A 4.05 
5 *142:8 *142:40 12.305 
6 *142:40 *1184:A1 2.665 
7 *142:40 *142:55 7.675 
8 *142:55 *142:61 2.985 
9 *142:61 *142:71 12.935 
10 *142:71 *142:73 5.205 
11 *142:73 *1179:A1 13.395 
12 *142:73 *1182:A1 5.115 
13 *142:71 *1186:A1 7.965 
14 *142:61 *142:116 12.01 
15 *142:116 *1277:A 39.335 
16 *142:116 *1269:A 1.6 
17 *142:55 *1281:B1 2.395 
*END

*D_NET *143 0.00307723
*CONN
*I *1159:A2 I *D sky130_fd_sc_hd__o2111a_1
*I *1176:A I *D sky130_fd_sc_hd__xnor2_4
*I *1165:B I *D sky130_fd_sc_hd__or2_2
*I *1158:Y O *D sky130_fd_sc_hd__xnor2_4
*CAP
1 *1159:A2 0.000267977
2 *1176:A 0.000106797
3 *1165:B 0.000103435
4 *1158:Y 0.000375618
5 *143:10 0.000348261
6 *143:6 0.000781625
7 *1159:A2 *245:132 0.000412705
8 *1165:B *268:26 0.0002774
9 *1165:B *516:59 0.000144883
10 *1176:A *245:20 0
11 *143:6 *244:47 5.15662e-05
12 *143:6 *245:20 0.000159179
13 *143:6 *245:132 4.77807e-05
14 *137:8 *1176:A 0
15 *137:21 *1176:A 0
*RES
1 *1158:Y *143:6 6.19 
2 *143:6 *143:10 3.89 
3 *143:10 *1165:B 7.62 
4 *143:10 *1176:A 5.235 
5 *143:6 *1159:A2 5.5 
*END

*D_NET *144 0.00373149
*CONN
*I *1160:B I *D sky130_fd_sc_hd__nand2_2
*I *1162:B I *D sky130_fd_sc_hd__or2_1
*I *1381:C_N I *D sky130_fd_sc_hd__or3b_1
*I *1168:A I *D sky130_fd_sc_hd__nor2_1
*I *1159:X O *D sky130_fd_sc_hd__o2111a_1
*CAP
1 *1160:B 0
2 *1162:B 0.000243976
3 *1381:C_N 0.000301829
4 *1168:A 0.000158432
5 *1159:X 0.000104271
6 *144:46 0.000624791
7 *144:10 0.000590737
8 *144:8 0.000615562
9 *1162:B *1161:B 2.8185e-05
10 *1162:B *145:29 1.08758e-05
11 *1162:B *288:68 0.000224143
12 *1162:B *329:41 6.71882e-05
13 *1162:B *499:8 0
14 *1168:A *1168:B 4.99619e-05
15 *1168:A *244:8 4.60584e-05
16 *1381:C_N *1476:CLK 9.01848e-05
17 *1381:C_N *329:62 5.34747e-05
18 *144:10 *1167:B 0
19 *144:46 *1167:A 1.77945e-05
20 *144:46 *1289:A 6.90876e-05
21 *144:46 *1289:B 0.000196077
22 *144:46 *145:29 8.4289e-05
23 *1477:D *1168:A 8.3877e-05
24 *1477:RESET_B *1168:A 4.18603e-06
25 *1477:RESET_B *144:10 6.65066e-05
*RES
1 *1159:X *144:8 4.98 
2 *144:8 *144:10 2.655 
3 *144:10 *1168:A 6.585 
4 *144:10 *1381:C_N 7.785 
5 *144:8 *144:46 8.345 
6 *144:46 *1162:B 10.43 
7 *144:46 *1160:B 1.6 
*END

*D_NET *145 0.00266371
*CONN
*I *1289:B I *D sky130_fd_sc_hd__nor2_4
*I *1163:A I *D sky130_fd_sc_hd__and2_1
*I *1161:B I *D sky130_fd_sc_hd__xnor2_1
*I *1160:Y O *D sky130_fd_sc_hd__nand2_2
*CAP
1 *1289:B 3.75027e-05
2 *1163:A 5.27488e-05
3 *1161:B 0.000301085
4 *1160:Y 0
5 *145:29 0.000204915
6 *145:4 0.000415749
7 *1161:B *1161:A 0.00019621
8 *1161:B *1163:B 0.000308713
9 *1161:B *1164:A 0.0002202
10 *1161:B *329:41 9.30787e-05
11 *1161:B *329:62 4.82919e-05
12 *1163:A *1163:B 0.000154863
13 *1163:A *244:47 0.000133329
14 *1289:B *1289:A 0.000163204
15 *1162:B *1161:B 2.8185e-05
16 *1162:B *145:29 1.08758e-05
17 *1478:D *1161:B 1.4399e-05
18 *144:46 *1289:B 0.000196077
19 *144:46 *145:29 8.4289e-05
*RES
1 *1160:Y *145:4 1.6 
2 *145:4 *1161:B 13.16 
3 *145:4 *145:29 2.22 
4 *145:29 *1163:A 7.49 
5 *145:29 *1289:B 3.43 
*END

*D_NET *146 0.00176651
*CONN
*I *1163:B I *D sky130_fd_sc_hd__and2_1
*I *1162:X O *D sky130_fd_sc_hd__or2_1
*CAP
1 *1163:B 0.000426952
2 *1162:X 0.000426952
3 *1163:B *244:21 4.43871e-06
4 *1163:B *244:30 5.92191e-05
5 *1163:B *244:47 6.23626e-06
6 *1163:B *329:62 8.43862e-05
7 *1163:B *516:40 0.000138596
8 *1163:B *516:49 0.000156159
9 *1161:B *1163:B 0.000308713
10 *1163:A *1163:B 0.000154863
*RES
1 *1162:X *1163:B 14.865 
*END

*D_NET *147 0.00146173
*CONN
*I *1164:A I *D sky130_fd_sc_hd__clkbuf_1
*I *1163:X O *D sky130_fd_sc_hd__and2_1
*CAP
1 *1164:A 0.000352043
2 *1163:X 0.000352043
3 *1164:A *1162:A 2.75145e-05
4 *1164:A *1382:A 3.00381e-05
5 *1164:A *1478:CLK 1.0183e-05
6 *1164:A *288:8 2.75229e-05
7 *1164:A *288:68 0
8 *1164:A *329:41 1.52945e-05
9 *1164:A *329:62 0.000123225
10 *1164:A *516:29 8.53113e-06
11 *1164:A *516:40 0.000190866
12 *1164:A *516:49 0.000104264
13 *1161:B *1164:A 0.0002202
*RES
1 *1163:X *1164:A 14.775 
*END

*D_NET *148 0.0033066
*CONN
*I *1399:D I *D sky130_fd_sc_hd__and4_1
*I *1271:A I *D sky130_fd_sc_hd__inv_2
*I *1325:D I *D sky130_fd_sc_hd__and4b_1
*I *1169:A2 I *D sky130_fd_sc_hd__a21oi_1
*I *1166:C I *D sky130_fd_sc_hd__and3_1
*I *1165:X O *D sky130_fd_sc_hd__or2_2
*CAP
1 *1399:D 0.000163789
2 *1271:A 8.47341e-05
3 *1325:D 8.80706e-05
4 *1169:A2 0
5 *1166:C 1.63614e-05
6 *1165:X 1.73371e-05
7 *148:34 0.000272281
8 *148:27 0.000290521
9 *148:12 0.000365079
10 *148:6 0.000338799
11 *1166:C *1166:B 2.65814e-06
12 *1271:A *514:14 0.000159179
13 *1325:D *413:32 2.05864e-05
14 *1399:D *268:26 0.00013443
15 *1399:D *297:14 2.00026e-05
16 *1399:D *516:59 0.000129177
17 *148:6 *268:26 8.73389e-06
18 *148:6 *516:59 4.66108e-05
19 *148:12 *515:14 7.03219e-05
20 *148:12 *515:44 0.000194024
21 *148:27 *1159:C1 2.85623e-05
22 *148:27 *1166:A 4.89295e-05
23 *148:27 *1166:B 1.87977e-05
24 *148:27 *1272:A1 1.0397e-05
25 *148:27 *514:16 0.000122797
26 *148:34 *413:77 0.000160635
27 *148:34 *514:14 0.000254353
28 *148:34 *514:16 4.77807e-05
29 *1399:C *1325:D 3.12855e-05
30 *1399:C *1399:D 4.77769e-05
31 *37:10 *1325:D 0.000112595
*RES
1 *1165:X *148:6 2.05 
2 *148:6 *148:12 7.165 
3 *148:12 *1166:C 1.765 
4 *148:12 *148:27 6.79 
5 *148:27 *1169:A2 1.6 
6 *148:27 *148:34 2.865 
7 *148:34 *1325:D 7.43375 
8 *148:34 *1271:A 3.43 
9 *148:6 *1399:D 5.98 
*END

*D_NET *149 0.00139293
*CONN
*I *1170:A I *D sky130_fd_sc_hd__nor2_1
*I *1167:B I *D sky130_fd_sc_hd__nor2_1
*I *1166:X O *D sky130_fd_sc_hd__and3_1
*CAP
1 *1170:A 0.000173258
2 *1167:B 0.000226939
3 *1166:X 0
4 *149:4 0.000400197
5 *1167:B *1167:A 1.63132e-05
6 *1167:B *1168:B 9.50342e-06
7 *1167:B *1322:A 4.14922e-05
8 *1170:A *1170:B 0
9 *1170:A *1272:A1 0
10 *1170:A *1288:A 9.50342e-06
11 *1170:A *1321:A 4.94457e-05
12 *1170:A *1322:A 0.000188703
13 *1170:A *515:14 0.000139238
14 *1476:D *1170:A 8.07231e-05
15 *1477:RESET_B *1167:B 5.76118e-05
16 *144:10 *1167:B 0
*RES
1 *1166:X *149:4 1.6 
2 *149:4 *1167:B 8.555 
3 *149:4 *1170:A 9.92 
*END

*D_NET *150 0.00091388
*CONN
*I *1168:B I *D sky130_fd_sc_hd__nor2_1
*I *1167:Y O *D sky130_fd_sc_hd__nor2_1
*CAP
1 *1168:B 0.000243622
2 *1167:Y 0.000243622
3 *1168:B *1322:A 0
4 *1168:B *244:8 0.000203178
5 *1167:B *1168:B 9.50342e-06
6 *1168:A *1168:B 4.99619e-05
7 *1477:RESET_B *1168:B 0.000163992
*RES
1 *1167:Y *1168:B 12.555 
*END

*D_NET *151 0.0011246
*CONN
*I *1170:B I *D sky130_fd_sc_hd__nor2_1
*I *1169:Y O *D sky130_fd_sc_hd__a21oi_1
*CAP
1 *1170:B 0.000360387
2 *1169:Y 0.000360387
3 *1170:B *1166:B 8.64421e-05
4 *1170:B *1272:A1 0.000146311
5 *1170:B *1306:A 4.89295e-05
6 *1170:B *1321:A 4.59624e-05
7 *1170:B *288:38 7.10593e-06
8 *1170:B *413:77 2.01504e-05
9 *1170:A *1170:B 0
10 *1476:RESET_B *1170:B 4.89295e-05
*RES
1 *1169:Y *1170:B 13.725 
*END

*D_NET *152 0.00950782
*CONN
*I *1172:A I *D sky130_fd_sc_hd__or2b_1
*I *1200:B I *D sky130_fd_sc_hd__and3b_4
*I *1192:B I *D sky130_fd_sc_hd__nor3b_2
*I *1182:B1 I *D sky130_fd_sc_hd__o2111a_1
*I *1185:A1 I *D sky130_fd_sc_hd__o21ba_1
*I *1178:B I *D sky130_fd_sc_hd__and3_4
*I *1191:B I *D sky130_fd_sc_hd__and3b_4
*I *1188:A I *D sky130_fd_sc_hd__or2_1
*I *1199:C_N I *D sky130_fd_sc_hd__nor3b_4
*I *1195:A_N I *D sky130_fd_sc_hd__and3b_1
*I *1171:X O *D sky130_fd_sc_hd__buf_2
*CAP
1 *1172:A 0.000357262
2 *1200:B 0
3 *1192:B 0
4 *1182:B1 0.000154592
5 *1185:A1 0.000152021
6 *1178:B 0.000204783
7 *1191:B 2.64552e-05
8 *1188:A 7.98494e-05
9 *1199:C_N 0
10 *1195:A_N 9.45527e-05
11 *1171:X 0
12 *152:95 0.00048772
13 *152:87 0.000181107
14 *152:72 0.000297893
15 *152:61 0.000273673
16 *152:46 0.000346395
17 *152:24 0.000121777
18 *152:18 0.000230536
19 *152:12 0.000428664
20 *152:4 0.000695051
21 *1172:A *1153:A 9.54399e-05
22 *1172:A *1535:CLK 5.35091e-05
23 *1172:A *435:14 0.000111337
24 *1178:B *1183:A1 0.000159741
25 *1178:B *1186:B1 3.43735e-05
26 *1178:B *157:16 4.82863e-05
27 *1178:B *268:26 0.000348441
28 *1178:B *499:19 0.000115631
29 *1178:B *512:21 3.38041e-05
30 *1182:B1 *1182:A2 8.64488e-05
31 *1182:B1 *1182:D1 4.77719e-05
32 *1185:A1 *1185:B1_N 0.00016897
33 *1185:A1 *268:26 2.68464e-05
34 *1188:A *160:45 0.000194299
35 *1191:B *1191:C 4.77807e-05
36 *1195:A_N *1185:A2 0.000120481
37 *1195:A_N *1196:A 4.66108e-05
38 *1195:A_N *157:69 8.34281e-06
39 *1195:A_N *168:16 3.83194e-05
40 *1195:A_N *512:75 8.77639e-05
41 *1195:A_N *512:82 6.33103e-05
42 *152:12 *1153:B 0
43 *152:12 *1171:A 8.40269e-05
44 *152:12 *1535:CLK 9.29176e-05
45 *152:12 *245:20 0.000242133
46 *152:12 *330:10 4.71697e-05
47 *152:12 *511:10 0
48 *152:18 *1185:A2 2.01934e-05
49 *152:18 *1200:C 0.000173434
50 *152:18 *167:136 0.000131987
51 *152:18 *245:20 2.02756e-05
52 *152:18 *511:10 6.81824e-05
53 *152:24 *1196:A 4.66108e-05
54 *152:24 *1199:A 3.09774e-05
55 *152:24 *512:82 1.91597e-05
56 *152:46 *158:83 1.21329e-05
57 *152:46 *167:136 0.000185026
58 *152:46 *245:20 0.000113647
59 *152:61 *1181:A 0.000232442
60 *152:61 *160:45 8.34281e-06
61 *152:61 *167:6 1.91597e-05
62 *152:61 *167:136 5.74791e-05
63 *152:72 *1186:B1 0.000111614
64 *152:72 *268:26 4.94587e-05
65 *152:72 *288:68 6.26426e-05
66 *152:95 *1185:A2 0.000110058
67 *152:95 *1185:B1_N 5.56459e-05
68 *152:95 *1192:C_N 4.66108e-05
69 *1280:B *1172:A 6.80137e-05
70 *1280:C *1172:A 6.80075e-05
71 *1473:D *1178:B 7.03219e-05
72 *1473:D *152:95 0.000154982
73 *140:21 *1172:A 0
74 *142:40 *1172:A 0.000247567
75 *142:71 *1188:A 9.88331e-05
76 *142:71 *1191:B 8.41384e-05
77 *142:71 *152:61 0.000535766
78 *142:73 *1182:B1 6.90254e-05
*RES
1 *1171:X *152:4 1.6 
2 *152:4 *152:12 9.775 
3 *152:12 *152:18 4.775 
4 *152:18 *152:24 2.81 
5 *152:24 *1195:A_N 4.45 
6 *152:24 *1199:C_N 1.6 
7 *152:18 *152:46 4.655 
8 *152:46 *1188:A 4.15 
9 *152:46 *152:61 5.295 
10 *152:61 *1191:B 2.395 
11 *152:61 *152:72 4.655 
12 *152:72 *1178:B 9.63 
13 *152:72 *152:87 2 
14 *152:87 *152:95 3.69 
15 *152:95 *1185:A1 7.805 
16 *152:95 *1182:B1 7.955 
17 *152:87 *1192:B 1.6 
18 *152:12 *1200:B 1.6 
19 *152:4 *1172:A 12.065 
*END

*D_NET *153 0.00217027
*CONN
*I *1173:B1 I *D sky130_fd_sc_hd__o21a_1
*I *1172:X O *D sky130_fd_sc_hd__or2b_1
*CAP
1 *1173:B1 0.000548426
2 *1172:X 0.000548426
3 *1173:B1 *1281:A2 1.13002e-05
4 *1173:B1 *1538:A 0.00015266
5 *1173:B1 *154:10 0.000421961
6 *1173:B1 *158:45 8.57063e-05
7 *1156:B *1173:B1 0.00011852
8 *1157:A *1173:B1 1.92979e-05
9 *1173:A1 *1173:B1 0.000115779
10 *1173:A2 *1173:B1 2.01411e-05
11 *1537:A *1173:B1 0
12 *138:15 *1173:B1 0.000108753
13 *142:40 *1173:B1 1.92979e-05
*RES
1 *1172:X *1173:B1 15.7657 
*END

*D_NET *154 0.00275667
*CONN
*I *1275:B I *D sky130_fd_sc_hd__xnor2_2
*I *1175:A2 I *D sky130_fd_sc_hd__o21a_1
*I *1173:X O *D sky130_fd_sc_hd__o21a_1
*CAP
1 *1275:B 1.17375e-05
2 *1175:A2 0.000358478
3 *1173:X 0.000463677
4 *154:10 0.000833892
5 *1175:A2 *158:45 3.79555e-05
6 *1175:A2 *168:38 0.000390828
7 *1175:A2 *245:20 0
8 *1275:B *167:136 4.82919e-05
9 *1275:B *238:10 2.75229e-05
10 *154:10 *1538:A 0.000162325
11 *154:10 *238:10 0
12 *154:10 *245:20 0
13 *1156:A *154:10 0
14 *1173:B1 *154:10 0.000421961
15 *137:21 *1175:A2 0
*RES
1 *1173:X *154:10 11.865 
2 *154:10 *1175:A2 8.79 
3 *154:10 *1275:B 4.05 
*END

*D_NET *155 0.00191131
*CONN
*I *1175:B1 I *D sky130_fd_sc_hd__o21a_1
*I *1174:X O *D sky130_fd_sc_hd__or2b_1
*CAP
1 *1175:B1 0.000728863
2 *1174:X 0.000728863
3 *1175:B1 *1174:B_N 7.35729e-05
4 *1175:B1 *1176:B 4.57056e-05
5 *1175:B1 *168:38 0.000197914
6 *1175:A1 *1175:B1 0.000136389
*RES
1 *1174:X *1175:B1 12.89 
*END

*D_NET *156 0.000556136
*CONN
*I *1176:B I *D sky130_fd_sc_hd__xnor2_4
*I *1175:X O *D sky130_fd_sc_hd__o21a_1
*CAP
1 *1176:B 9.01203e-05
2 *1175:X 9.01203e-05
3 *1176:B *168:38 0.000272378
4 *1175:A1 *1176:B 5.78125e-05
5 *1175:B1 *1176:B 4.57056e-05
*RES
1 *1175:X *1176:B 6.08 
*END

*D_NET *157 0.0104317
*CONN
*I *1191:C I *D sky130_fd_sc_hd__and3b_4
*I *1188:B I *D sky130_fd_sc_hd__or2_1
*I *1184:B1 I *D sky130_fd_sc_hd__o211a_1
*I *1200:A_N I *D sky130_fd_sc_hd__and3b_4
*I *1199:B I *D sky130_fd_sc_hd__nor3b_4
*I *1195:B I *D sky130_fd_sc_hd__and3b_1
*I *1192:C_N I *D sky130_fd_sc_hd__nor3b_2
*I *1178:C I *D sky130_fd_sc_hd__and3_4
*I *1182:C1 I *D sky130_fd_sc_hd__o2111a_1
*I *1187:A I *D sky130_fd_sc_hd__xor2_1
*I *1177:X O *D sky130_fd_sc_hd__clkbuf_4
*CAP
1 *1191:C 7.72548e-05
2 *1188:B 5.57725e-05
3 *1184:B1 0.000287318
4 *1200:A_N 5.29165e-05
5 *1199:B 0
6 *1195:B 0
7 *1192:C_N 1.36534e-05
8 *1178:C 0
9 *1182:C1 0.000189087
10 *1187:A 0.000361873
11 *1177:X 0.000636463
12 *157:86 0.000415802
13 *157:75 0.000159095
14 *157:69 0.000352645
15 *157:60 0.000563522
16 *157:56 0.000452945
17 *157:45 0.000164026
18 *157:16 0.00072588
19 *157:12 0.000174919
20 *157:10 0.000761322
21 *1182:C1 *1182:D1 5.55448e-05
22 *1182:C1 *1183:A2 0.000181898
23 *1182:C1 *444:12 0
24 *1184:B1 *1184:A2 3.11545e-05
25 *1184:B1 *1184:C1 1.00941e-05
26 *1184:B1 *1196:A 6.69221e-05
27 *1184:B1 *172:26 5.83121e-06
28 *1184:B1 *175:14 5.35181e-06
29 *1187:A *1183:B1_N 0
30 *1187:A *1187:B 4.94474e-05
31 *1187:A *1474:CLK 0.000238056
32 *1187:A *159:14 2.20014e-05
33 *1187:A *329:18 5.4003e-05
34 *1187:A *444:12 0
35 *1188:B *245:20 0.000124496
36 *1188:B *330:10 4.63004e-05
37 *1191:C *1186:B1 0.000135382
38 *1191:C *163:154 0.000128981
39 *1192:C_N *1185:A2 4.66108e-05
40 *1200:A_N *1281:A2 2.9393e-05
41 *1200:A_N *330:10 3.11984e-05
42 *157:10 *1179:B1 0.000137571
43 *157:10 *1187:B 4.75576e-05
44 *157:10 *1317:A 0
45 *157:10 *163:154 0.000221225
46 *157:10 *268:26 0.000306859
47 *157:10 *329:18 0
48 *157:10 *499:8 0.000113669
49 *157:10 *499:19 0.000696103
50 *157:16 *1183:A1 0.000209452
51 *157:16 *512:21 4.38278e-05
52 *157:45 *1186:B1 0.000131164
53 *157:45 *163:154 0.000245788
54 *157:45 *499:19 0.000211021
55 *157:56 *1186:B1 6.84082e-05
56 *157:56 *163:154 6.17462e-05
57 *157:60 *1185:A2 1.33285e-05
58 *157:60 *168:16 0.000303911
59 *157:60 *268:26 0.000155608
60 *157:69 *1196:A 0.000104588
61 *157:69 *168:16 3.57349e-05
62 *157:75 *1196:A 0.000121659
63 *157:75 *245:20 7.14946e-05
64 *157:75 *330:10 2.38346e-05
65 *157:86 *1196:A 0.000121653
66 *157:86 *1281:A2 1.54568e-05
67 *157:86 *330:10 1.3515e-05
68 *1178:B *157:16 4.82863e-05
69 *1179:A1 *1182:C1 0
70 *1179:A1 *1187:A 0
71 *1179:A1 *157:10 0
72 *1191:B *1191:C 4.77807e-05
73 *1195:A_N *157:69 8.34281e-06
74 *142:40 *1184:B1 1.01864e-05
75 *142:55 *1184:B1 6.90254e-05
76 *142:71 *1191:C 1.91597e-05
77 *152:95 *1192:C_N 4.66108e-05
*RES
1 *1177:X *157:10 17.385 
2 *157:10 *157:12 2 
3 *157:12 *157:16 5.9 
4 *157:16 *1187:A 10.365 
5 *157:16 *1182:C1 6.96 
6 *157:12 *1178:C 1.6 
7 *157:10 *157:45 4.185 
8 *157:45 *1192:C_N 4.05 
9 *157:45 *157:56 0.87 
10 *157:56 *157:60 6.59 
11 *157:60 *1195:B 1.6 
12 *157:60 *157:69 4.52 
13 *157:69 *157:75 4.01 
14 *157:75 *1199:B 1.6 
15 *157:75 *157:86 3.755 
16 *157:86 *1200:A_N 4.725 
17 *157:86 *1184:B1 11.5 
18 *157:69 *1188:B 5.235 
19 *157:56 *1191:C 6.03 
*END

*D_NET *158 0.0308404
*CONN
*I *1234:A2 I *D sky130_fd_sc_hd__a21o_1
*I *1261:A2 I *D sky130_fd_sc_hd__a21o_1
*I *1216:A2 I *D sky130_fd_sc_hd__a21o_1
*I *1243:A2 I *D sky130_fd_sc_hd__a21o_1
*I *1225:A2 I *D sky130_fd_sc_hd__a21o_1
*I *1252:A2 I *D sky130_fd_sc_hd__a21o_1
*I *1207:A2 I *D sky130_fd_sc_hd__a21o_1
*I *1194:A2 I *D sky130_fd_sc_hd__a21o_1
*I *1179:B1 I *D sky130_fd_sc_hd__o211a_1
*I *1178:X O *D sky130_fd_sc_hd__and3_4
*CAP
1 *1234:A2 0.00032479
2 *1261:A2 9.8139e-05
3 *1216:A2 0.000455428
4 *1243:A2 3.64928e-05
5 *1225:A2 0
6 *1252:A2 0
7 *1207:A2 0.00101351
8 *1194:A2 2.09559e-05
9 *1179:B1 0.000299554
10 *1178:X 1.40171e-05
11 *158:158 0.00216315
12 *158:135 0.00322355
13 *158:102 0.00171929
14 *158:91 0.000499632
15 *158:83 0.0013946
16 *158:45 0.00278393
17 *158:12 0.00221573
18 *158:6 0.000892732
19 *1179:B1 *1317:A 4.99619e-05
20 *1179:B1 *329:14 2.68739e-05
21 *1179:B1 *437:8 4.82863e-05
22 *1194:A2 *1380:A 0
23 *1207:A2 *1194:A1 4.77719e-05
24 *1207:A2 *1203:B1 4.8854e-05
25 *1207:A2 *1204:A1 0
26 *1207:A2 *1302:S 8.53011e-05
27 *1207:A2 *1303:A 5.83121e-06
28 *1207:A2 *1343:A0 4.61744e-05
29 *1207:A2 *1343:A1 9.16315e-05
30 *1207:A2 *1359:A0 3.80168e-05
31 *1207:A2 *1379:A0 1.52352e-05
32 *1207:A2 *167:142 7.40687e-05
33 *1207:A2 *477:26 2.97263e-05
34 *1207:A2 *488:32 3.86087e-05
35 *1207:A2 *488:51 0.000383886
36 *1207:A2 *488:61 0.000344213
37 *1216:A2 *1221:A1 0.000144158
38 *1216:A2 *1221:B1 4.77757e-05
39 *1216:A2 *1291:A 0.000329332
40 *1216:A2 *1339:S 1.1858e-05
41 *1216:A2 *1485:CLK 1.747e-05
42 *1234:A2 *1234:A1 8.77516e-05
43 *1234:A2 *1234:B1 0.000236648
44 *1234:A2 *1457:CLK 0.000238715
45 *1234:A2 *219:20 6.52096e-05
46 *1234:A2 *396:8 0.000155248
47 *1234:A2 *444:66 0.00039333
48 *1243:A2 *1545:A 1.92979e-05
49 *1243:A2 *1651:A 1.79483e-05
50 *1243:A2 *167:84 2.49909e-05
51 *1261:A2 *1261:A1 6.93645e-05
52 *1261:A2 *1261:B1 3.68999e-05
53 *1261:A2 *1480:CLK 1.52352e-05
54 *158:6 *1183:A1 4.82863e-05
55 *158:6 *512:21 1.4389e-05
56 *158:12 *268:26 0.000308716
57 *158:12 *288:68 0.000556252
58 *158:45 *1154:A 0.000345544
59 *158:45 *1363:A_N 4.66108e-05
60 *158:45 *1364:A 0.000123826
61 *158:45 *1380:A 0.000121437
62 *158:45 *167:136 0.00139114
63 *158:45 *167:142 2.79137e-05
64 *158:45 *258:8 2.75229e-05
65 *158:45 *329:14 2.02596e-05
66 *158:45 *510:6 0.00015806
67 *158:45 *510:19 0.000301306
68 *158:45 *514:92 7.3151e-05
69 *158:45 *514:115 0.000146408
70 *158:45 *515:44 4.61701e-06
71 *158:83 *1183:A1 0.00014294
72 *158:83 *1297:A 0
73 *158:83 *1535:CLK 8.63479e-05
74 *158:83 *1554:A 0
75 *158:83 *1632:A 0.000296478
76 *158:83 *167:10 0
77 *158:83 *167:25 0
78 *158:83 *167:136 0.000527857
79 *158:83 *168:38 0.000383989
80 *158:83 *245:20 0
81 *158:83 *437:42 3.68942e-05
82 *158:83 *444:66 0
83 *158:83 *512:21 2.01259e-05
84 *158:91 *1252:A1 0.000138551
85 *158:91 *1293:A 0
86 *158:91 *1297:A 0
87 *158:91 *1554:A 3.25831e-05
88 *158:91 *167:25 0.000509372
89 *158:102 *1252:A1 9.50342e-06
90 *158:102 *167:25 8.06833e-05
91 *158:102 *167:38 0.000105641
92 *158:102 *288:100 5.74699e-05
93 *158:102 *438:42 0.00017446
94 *158:135 *1222:A1 0.000137846
95 *158:135 *1225:B1 4.77769e-05
96 *158:135 *1230:B1 0.000197243
97 *158:135 *1230:B2 2.1376e-05
98 *158:135 *1240:A1 0
99 *158:135 *1242:A1 1.79536e-05
100 *158:135 *1298:A0 0.000191497
101 *158:135 *1299:A 8.00607e-05
102 *158:135 *1337:A0 2.22026e-05
103 *158:135 *1337:S 7.54579e-05
104 *158:135 *1338:A 9.79037e-06
105 *158:135 *1352:A 7.8726e-06
106 *158:135 *1490:CLK 0.000293243
107 *158:135 *167:65 9.23502e-05
108 *158:135 *333:16 3.21081e-06
109 *158:135 *438:75 0.000489119
110 *158:158 *1222:A1 0.000410761
111 *158:158 *1260:B2 1.1561e-05
112 *158:158 *1261:B1 0.000268739
113 *158:158 *1266:B1 4.82863e-05
114 *158:158 *1290:A0 0.000148261
115 *158:158 *1504:CLK 0.000207644
116 *158:158 *165:90 4.47808e-05
117 *158:158 *258:110 0.000345083
118 *158:158 *335:106 1.79483e-05
119 *1173:B1 *158:45 8.57063e-05
120 *1175:A2 *158:45 3.79555e-05
121 *1179:A1 *1179:B1 5.63405e-05
122 *1277:A *158:135 0.000114618
123 *1457:D *1234:A2 5.37091e-05
124 *1457:D *158:83 2.97004e-06
125 *1457:D *158:91 0
126 *1487:D *1207:A2 0.00020525
127 *1490:D *158:135 0.000184597
128 *152:46 *158:83 1.21329e-05
129 *157:10 *1179:B1 0.000137571
*RES
1 *1178:X *158:6 2.05 
2 *158:6 *158:12 10.48 
3 *158:12 *1179:B1 10.205 
4 *158:12 *158:45 28.0618 
5 *158:45 *1194:A2 1.96 
6 *158:45 *1207:A2 23.18 
7 *158:6 *158:83 17.555 
8 *158:83 *158:91 8.43 
9 *158:91 *1252:A2 3.6 
10 *158:91 *158:102 6.185 
11 *158:102 *1225:A2 1.6 
12 *158:102 *158:135 28.5182 
13 *158:135 *1243:A2 4.7825 
14 *158:135 *158:158 12.4742 
15 *158:158 *1216:A2 14.72 
16 *158:158 *1261:A2 3.445 
17 *158:83 *1234:A2 13.035 
*END

*D_NET *159 0.0023991
*CONN
*I *1183:B1_N I *D sky130_fd_sc_hd__o21ba_1
*I *1180:B I *D sky130_fd_sc_hd__xor2_1
*I *1179:X O *D sky130_fd_sc_hd__o211a_1
*CAP
1 *1183:B1_N 0.000226137
2 *1180:B 5.92599e-05
3 *1179:X 0.000259156
4 *159:14 0.000544552
5 *1183:B1_N *1183:A1 0
6 *1183:B1_N *244:83 0.000210846
7 *1183:B1_N *444:12 0.000518141
8 *159:14 *1187:B 9.55557e-05
9 *159:14 *329:18 2.87867e-05
10 *1179:A1 *159:14 2.47705e-05
11 *1187:A *1183:B1_N 0
12 *1187:A *159:14 2.20014e-05
13 *1472:D *159:14 8.64421e-05
14 *1474:RESET_B *1183:B1_N 0.000163985
15 *1475:D *159:14 0.000159464
*RES
1 *1179:X *159:14 10.73 
2 *159:14 *1180:B 2.41 
3 *159:14 *1183:B1_N 12.635 
*END

*D_NET *160 0.0319209
*CONN
*I *1263:A1 I *D sky130_fd_sc_hd__a21oi_1
*I *1227:A1 I *D sky130_fd_sc_hd__a21oi_1
*I *1254:A1 I *D sky130_fd_sc_hd__a21oi_1
*I *1245:A1 I *D sky130_fd_sc_hd__a21oi_1
*I *1218:A1 I *D sky130_fd_sc_hd__a21oi_1
*I *1209:A1 I *D sky130_fd_sc_hd__a21oi_1
*I *1198:A1 I *D sky130_fd_sc_hd__a21oi_1
*I *1236:A1 I *D sky130_fd_sc_hd__a21oi_1
*I *1190:A I *D sky130_fd_sc_hd__or2_4
*I *1183:A1 I *D sky130_fd_sc_hd__o21ba_1
*I *1181:X O *D sky130_fd_sc_hd__clkbuf_4
*CAP
1 *1263:A1 0
2 *1227:A1 0.000439603
3 *1254:A1 0.000218718
4 *1245:A1 0.000118119
5 *1218:A1 0
6 *1209:A1 6.92763e-05
7 *1198:A1 0.000409502
8 *1236:A1 0
9 *1190:A 0.000164399
10 *1183:A1 0.000880755
11 *1181:X 0
12 *160:177 0.00266438
13 *160:154 0.00270991
14 *160:150 0.00132606
15 *160:113 0.000995923
16 *160:99 0.000554085
17 *160:97 0.00226279
18 *160:70 0.00175225
19 *160:45 0.00192864
20 *160:4 0.00237827
21 *1183:A1 *1183:A2 9.51146e-06
22 *1183:A1 *1185:A2 6.73904e-05
23 *1183:A1 *1473:CLK 0.000152382
24 *1183:A1 *329:105 7.13792e-05
25 *1183:A1 *437:42 5.37001e-05
26 *1183:A1 *512:21 6.68173e-06
27 *1183:A1 *512:44 4.42578e-05
28 *1183:A1 *512:48 1.50965e-05
29 *1183:A1 *512:59 4.42856e-05
30 *1190:A *1651:A 0
31 *1190:A *165:38 0.000158655
32 *1190:A *165:63 7.32625e-05
33 *1190:A *166:10 0.000173284
34 *1190:A *278:53 0.000235903
35 *1190:A *434:10 0.000192735
36 *1198:A1 *1197:A 5.83121e-06
37 *1198:A1 *1198:A2 7.33728e-05
38 *1198:A1 *1198:B1 0
39 *1198:A1 *1212:B2 0
40 *1198:A1 *299:135 0.0001468
41 *1198:A1 *477:66 0
42 *1209:A1 *1209:A2 4.89362e-05
43 *1209:A1 *1518:CLK 2.0187e-05
44 *1227:A1 *1227:B1 4.66108e-05
45 *1227:A1 *378:14 0.000188785
46 *1245:A1 *1245:A2 6.84448e-05
47 *1245:A1 *176:77 5.11528e-05
48 *1254:A1 *1254:B1 3.66286e-05
49 *1254:A1 *1428:S 2.92496e-05
50 *1254:A1 *165:171 4.99619e-05
51 *1254:A1 *309:95 4.66108e-05
52 *1254:A1 *378:14 3.82741e-05
53 *1254:A1 *422:92 4.11455e-05
54 *160:45 *1189:A 5.077e-05
55 *160:45 *1281:A1 0.000190259
56 *160:45 *1281:A2 0.000118081
57 *160:45 *1444:A1 8.3657e-05
58 *160:45 *167:6 1.14192e-05
59 *160:45 *167:136 0.000218603
60 *160:45 *172:26 0.000377167
61 *160:45 *175:14 3.21413e-05
62 *160:45 *309:10 0
63 *160:45 *330:50 0.000197254
64 *160:45 *330:65 0.000358738
65 *160:70 *1236:A2 0.000160635
66 *160:70 *1236:B1 1.31519e-05
67 *160:70 *1238:B1 9.53428e-06
68 *160:70 *166:10 0.000413708
69 *160:70 *278:53 0.000294454
70 *160:70 *299:14 6.04161e-05
71 *160:97 *1219:A1 0.000158066
72 *160:97 *1219:B2 0.000173799
73 *160:97 *1236:B1 1.71464e-05
74 *160:97 *1238:B1 5.062e-06
75 *160:97 *1357:A0 7.81746e-06
76 *160:97 *1426:A0 1.85674e-05
77 *160:97 *1448:A0 7.06865e-05
78 *160:97 *1533:CLK 0.000434025
79 *160:97 *1553:A 9.96241e-05
80 *160:97 *1572:A 3.00381e-05
81 *160:97 *332:74 6.56884e-05
82 *160:97 *332:78 0.000321348
83 *160:99 *166:120 9.30717e-05
84 *160:99 *172:66 4.31189e-05
85 *160:113 *1209:A2 0.000133453
86 *160:113 *1518:CLK 0.000154986
87 *160:113 *165:139 0.000271039
88 *160:113 *166:120 0.000273646
89 *160:113 *299:135 0.000203109
90 *160:113 *332:86 9.08567e-05
91 *160:150 *1261:B1 0.000125587
92 *160:150 *1263:A2 2.75145e-05
93 *160:150 *1266:B2 0.000166685
94 *160:150 *1300:S 0.000303473
95 *160:150 *166:120 0.000306201
96 *160:150 *172:66 0.000252236
97 *160:150 *299:109 0.00134444
98 *160:150 *309:54 0
99 *160:150 *336:144 3.82323e-06
100 *160:150 *382:10 0.000116158
101 *160:150 *393:14 7.23602e-05
102 *160:150 *401:44 0
103 *160:154 *1263:B1 8.65961e-05
104 *160:154 *1265:B1 0.000132968
105 *160:154 *336:133 5.36384e-06
106 *160:154 *336:144 4.51535e-05
107 *160:177 *163:70 0.000188256
108 *160:177 *299:80 0.000659107
109 *160:177 *299:97 0.000208356
110 *160:177 *309:37 0.000145005
111 *160:177 *309:95 0.00013829
112 *1178:B *1183:A1 0.000159741
113 *1183:B1_N *1183:A1 0
114 *1188:A *160:45 0.000194299
115 *1454:D *160:150 3.98952e-05
116 *1463:D *160:113 7.03219e-05
117 *1473:RESET_B *1183:A1 0.000265826
118 *1520:D *160:154 9.26175e-06
119 *1525:D *160:97 1.54049e-05
120 *142:61 *160:45 8.84986e-05
121 *142:71 *160:45 2.27628e-05
122 *152:61 *160:45 8.34281e-06
123 *157:16 *1183:A1 0.000209452
124 *158:6 *1183:A1 4.82863e-05
125 *158:83 *1183:A1 0.00014294
*RES
1 *1181:X *160:4 1.6 
2 *160:4 *1183:A1 20.135 
3 *160:4 *160:45 29.535 
4 *160:45 *1190:A 9.15 
5 *160:45 *160:70 9.755 
6 *160:70 *1236:A1 1.6 
7 *160:70 *160:97 27.075 
8 *160:97 *160:99 1.125 
9 *160:99 *160:113 15.205 
10 *160:113 *1198:A1 9.87 
11 *160:113 *1209:A1 4.74 
12 *160:99 *1218:A1 3.6 
13 *160:97 *160:150 23.855 
14 *160:150 *160:154 9.005 
15 *160:154 *1245:A1 5.43 
16 *160:154 *160:177 5.04573 
17 *160:177 *1254:A1 6.6075 
18 *160:177 *1227:A1 9.9225 
19 *160:150 *1263:A1 1.6 
*END

*D_NET *161 0.00154869
*CONN
*I *1183:A2 I *D sky130_fd_sc_hd__o21ba_1
*I *1185:B1_N I *D sky130_fd_sc_hd__o21ba_1
*I *1182:X O *D sky130_fd_sc_hd__o2111a_1
*CAP
1 *1183:A2 0.000238368
2 *1185:B1_N 0.000263053
3 *1182:X 0
4 *161:6 0.000501422
5 *1183:A2 *444:12 0
6 *1185:B1_N *1185:A2 7.4168e-05
7 *1185:B1_N *268:26 5.56516e-05
8 *1185:B1_N *444:12 0
9 *1182:C1 *1183:A2 0.000181898
10 *1183:A1 *1183:A2 9.51146e-06
11 *1185:A1 *1185:B1_N 0.00016897
12 *152:95 *1185:B1_N 5.56459e-05
*RES
1 *1182:X *161:6 3.6 
2 *161:6 *1185:B1_N 8.64 
3 *161:6 *1183:A2 8.31 
*END

*D_NET *162 0.00307471
*CONN
*I *1185:A2 I *D sky130_fd_sc_hd__o21ba_1
*I *1184:X O *D sky130_fd_sc_hd__o211a_1
*CAP
1 *1185:A2 0.000774593
2 *1184:X 0.000774593
3 *1185:A2 *1200:C 0.000121036
4 *1185:A2 *168:16 0.000266391
5 *1185:A2 *176:24 7.28776e-05
6 *1185:A2 *268:26 0.000412271
7 *1185:A2 *437:42 0.000129721
8 *1185:A2 *511:10 5.77897e-05
9 *1185:A2 *512:75 1.32102e-05
10 *1183:A1 *1185:A2 6.73904e-05
11 *1185:B1_N *1185:A2 7.4168e-05
12 *1192:C_N *1185:A2 4.66108e-05
13 *1195:A_N *1185:A2 0.000120481
14 *152:18 *1185:A2 2.01934e-05
15 *152:95 *1185:A2 0.000110058
16 *157:60 *1185:A2 1.33285e-05
*RES
1 *1184:X *1185:A2 21.48 
*END

*D_NET *163 0.0378307
*CONN
*I *1213:S I *D sky130_fd_sc_hd__mux2_1
*I *1204:S I *D sky130_fd_sc_hd__mux2_1
*I *1187:B I *D sky130_fd_sc_hd__xor2_1
*I *1249:S I *D sky130_fd_sc_hd__mux2_1
*I *1240:S I *D sky130_fd_sc_hd__mux2_1
*I *1267:S I *D sky130_fd_sc_hd__mux2_1
*I *1258:S I *D sky130_fd_sc_hd__mux2_1
*I *1231:S I *D sky130_fd_sc_hd__mux2_1
*I *1222:S I *D sky130_fd_sc_hd__mux2_1
*I *1186:X O *D sky130_fd_sc_hd__o21a_4
*CAP
1 *1213:S 0.00105877
2 *1204:S 5.71774e-05
3 *1187:B 0.000209494
4 *1249:S 1.11992e-05
5 *1240:S 0
6 *1267:S 0.0001313
7 *1258:S 0.00115708
8 *1231:S 2.15402e-05
9 *1222:S 0
10 *1186:X 0
11 *163:203 0.00188078
12 *163:197 0.0037636
13 *163:154 0.00378054
14 *163:86 0.0032993
15 *163:70 0.00421835
16 *163:45 0.00290262
17 *163:24 0.00116814
18 *163:14 0.000941805
19 *163:4 0.00100839
20 *1187:B *329:14 0.000233992
21 *1204:S *1204:A0 5.30673e-05
22 *1204:S *413:20 0.000179055
23 *1213:S *1204:A0 0.000234763
24 *1213:S *1213:A0 8.52845e-05
25 *1213:S *1302:A0 6.41593e-05
26 *1213:S *1589:A 3.42046e-06
27 *1213:S *254:129 0
28 *1213:S *331:114 0.000314505
29 *1213:S *331:133 0.000174893
30 *1213:S *413:20 5.82121e-05
31 *1213:S *488:16 1.37112e-05
32 *1249:S *1249:A1 9.53428e-06
33 *1249:S *1311:A 0
34 *1258:S *1259:A 8.52883e-05
35 *1258:S *1291:A 0
36 *1258:S *1339:S 0.000157956
37 *1258:S *1340:A 8.10182e-05
38 *1258:S *1485:CLK 4.6902e-05
39 *1258:S *299:109 0
40 *1258:S *466:35 0.000203418
41 *1267:S *1266:A1 7.69532e-05
42 *1267:S *1267:A1 0.000257069
43 *163:14 *1249:A1 4.58257e-05
44 *163:14 *1283:B 0.000190603
45 *163:14 *1311:A 0.000150653
46 *163:14 *219:20 2.75145e-05
47 *163:14 *254:29 0
48 *163:14 *348:8 6.02227e-05
49 *163:24 *1222:A1 5.31158e-06
50 *163:24 *1249:A1 2.5177e-05
51 *163:24 *1250:A 0
52 *163:24 *1311:A 1.08758e-05
53 *163:24 *1648:A 0
54 *163:24 *254:46 0.000485031
55 *163:24 *418:12 0.000120186
56 *163:45 *1222:A0 8.23457e-05
57 *163:45 *1231:A0 2.75229e-05
58 *163:45 *1231:A1 0.000304696
59 *163:45 *1232:A 0
60 *163:45 *1355:S 0.000145069
61 *163:45 *1356:A 6.14024e-05
62 *163:45 *1640:A 0
63 *163:45 *333:20 0.000284417
64 *163:45 *455:10 0
65 *163:70 *1240:A0 5.05437e-05
66 *163:70 *1467:CLK 1.7635e-05
67 *163:70 *167:65 0
68 *163:70 *254:82 0.000191302
69 *163:70 *299:22 2.04531e-05
70 *163:70 *299:46 4.80285e-05
71 *163:70 *336:12 2.99445e-05
72 *163:86 *1240:A1 7.17811e-05
73 *163:86 *1266:A1 0.000136104
74 *163:86 *1266:A2 0.000177127
75 *163:86 *1266:B1 8.19139e-05
76 *163:86 *1267:A1 0.000349094
77 *163:86 *1383:A1 1.54878e-05
78 *163:86 *1406:A1 2.21878e-05
79 *163:86 *299:22 5.12942e-05
80 *163:86 *336:6 0.000275553
81 *163:86 *336:34 0.000655258
82 *163:86 *336:40 8.9128e-05
83 *163:86 *339:14 0.000120655
84 *163:154 *1182:A2 0.000212705
85 *163:154 *1186:B1 7.84137e-05
86 *163:154 *1283:B 0.000271095
87 *163:154 *444:31 0.000238345
88 *163:154 *512:12 0.000201114
89 *163:197 *1203:B1 0.000492836
90 *163:197 *1318:A 8.88799e-05
91 *163:197 *1437:A 0.000310458
92 *163:197 *238:16 0.000392372
93 *163:197 *258:40 1.7635e-05
94 *163:203 *1206:B1 0.000139878
95 *163:203 *1206:B2 0.000154479
96 *163:203 *1487:CLK 6.57032e-05
97 *163:203 *1578:A 5.83373e-05
98 *163:203 *268:86 0
99 *163:203 *331:38 2.03719e-05
100 *163:203 *352:12 4.08655e-05
101 *163:203 *413:20 7.67415e-06
102 *163:203 *413:32 0.000308026
103 *1156:B *163:197 2.19562e-06
104 *1156:D *163:197 0.000534764
105 *1179:A1 *1187:B 4.94404e-05
106 *1179:A1 *163:154 0.00017852
107 *1186:A1 *163:154 8.73389e-06
108 *1187:A *1187:B 4.94474e-05
109 *1191:C *163:154 0.000128981
110 *1460:D *1213:S 0.000110179
111 *1468:RESET_B *163:45 0
112 *1470:D *1213:S 6.23967e-05
113 *1472:D *1187:B 9.53743e-05
114 *1480:D *1258:S 4.67041e-05
115 *1485:D *1258:S 8.73389e-06
116 *1489:D *163:24 0
117 *1492:D *163:45 0
118 *1503:D *163:197 5.14416e-05
119 *1508:D *163:45 0.000112153
120 *1537:A *163:197 0
121 *140:8 *163:197 9.22294e-06
122 *142:73 *163:154 4.94278e-05
123 *157:10 *1187:B 4.75576e-05
124 *157:10 *163:154 0.000221225
125 *157:45 *163:154 0.000245788
126 *157:56 *163:154 6.17462e-05
127 *159:14 *1187:B 9.55557e-05
128 *160:177 *163:70 0.000188256
*RES
1 *1186:X *163:4 1.6 
2 *163:4 *163:14 12.625 
3 *163:14 *163:24 15.205 
4 *163:24 *1222:S 1.6 
5 *163:24 *163:45 18.22 
6 *163:45 *1231:S 1.96 
7 *163:45 *163:70 11.5023 
8 *163:70 *163:86 33.58 
9 *163:86 *1258:S 27.87 
10 *163:86 *1267:S 9.065 
11 *163:70 *1240:S 1.6 
12 *163:14 *1249:S 1.96 
13 *163:4 *163:154 18.8 
14 *163:154 *1187:B 9 
15 *163:154 *163:197 40.9118 
16 *163:197 *163:203 14.75 
17 *163:203 *1204:S 3.61 
18 *163:203 *1213:S 25.515 
*END

*D_NET *164 0.000165647
*CONN
*I *1189:A I *D sky130_fd_sc_hd__clkbuf_4
*I *1188:X O *D sky130_fd_sc_hd__or2_1
*CAP
1 *1189:A 1.42142e-05
2 *1188:X 1.42142e-05
3 *142:61 *1189:A 3.75126e-05
4 *142:71 *1189:A 4.89362e-05
5 *160:45 *1189:A 5.077e-05
*RES
1 *1188:X *1189:A 3.995 
*END

*D_NET *165 0.0247218
*CONN
*I *1254:B1 I *D sky130_fd_sc_hd__a21oi_1
*I *1227:B1 I *D sky130_fd_sc_hd__a21oi_1
*I *1209:B1 I *D sky130_fd_sc_hd__a21oi_1
*I *1198:B1 I *D sky130_fd_sc_hd__a21oi_1
*I *1218:B1 I *D sky130_fd_sc_hd__a21oi_1
*I *1263:B1 I *D sky130_fd_sc_hd__a21oi_1
*I *1245:B1 I *D sky130_fd_sc_hd__a21oi_1
*I *1236:B1 I *D sky130_fd_sc_hd__a21oi_1
*I *1190:B I *D sky130_fd_sc_hd__or2_4
*I *1189:X O *D sky130_fd_sc_hd__clkbuf_4
*CAP
1 *1254:B1 1.56642e-05
2 *1227:B1 0.000212085
3 *1209:B1 7.89639e-05
4 *1198:B1 0.000210889
5 *1218:B1 0
6 *1263:B1 0.000114123
7 *1245:B1 0.00041115
8 *1236:B1 0.000292503
9 *1190:B 0
10 *1189:X 2.53961e-05
11 *165:171 0.00127532
12 *165:139 0.00077324
13 *165:120 0.000541357
14 *165:90 0.0013679
15 *165:82 0.00179585
16 *165:63 0.0019327
17 *165:38 0.00182255
18 *165:8 0.00215058
19 *1198:B1 *1212:B2 0.000114671
20 *1209:B1 *1211:B1 1.52352e-05
21 *1209:B1 *1211:C1 5.69152e-05
22 *1227:B1 *1229:B1 9.30717e-05
23 *1227:B1 *1229:C1 7.63204e-05
24 *1227:B1 *1428:A0 3.38982e-05
25 *1227:B1 *381:12 0.000114492
26 *1227:B1 *422:50 5.4003e-05
27 *1236:B1 *1238:B1 5.74987e-05
28 *1236:B1 *1533:CLK 9.85468e-05
29 *1245:B1 *1245:A2 3.45045e-05
30 *1245:B1 *1247:B1 4.9253e-06
31 *1245:B1 *1420:A0 2.16833e-05
32 *1245:B1 *1421:A 3.00381e-05
33 *1245:B1 *309:37 7.22354e-05
34 *1245:B1 *309:54 7.35729e-05
35 *1245:B1 *401:44 0.000161529
36 *1254:B1 *422:30 1.56428e-05
37 *1263:B1 *1265:B1 8.65961e-05
38 *1263:B1 *1266:B2 0
39 *1263:B1 *1420:A0 4.59602e-05
40 *165:38 *1184:A2 0.00033207
41 *165:38 *1281:A2 0.000320581
42 *165:38 *1285:A1 0.000191881
43 *165:38 *1285:A2 0.00013194
44 *165:38 *1536:A 0.000177596
45 *165:38 *166:10 9.31543e-05
46 *165:38 *176:24 0.000529833
47 *165:38 *434:10 0.000187197
48 *165:63 *1270:A1 0.000285245
49 *165:63 *1448:A0 0.00017304
50 *165:63 *1451:A 0.000264333
51 *165:63 *1651:A 0
52 *165:63 *166:10 0.000122202
53 *165:63 *166:76 0.000111398
54 *165:63 *172:26 0
55 *165:63 *175:33 1.50269e-05
56 *165:63 *175:50 1.84465e-05
57 *165:63 *268:86 0
58 *165:63 *328:36 5.40483e-06
59 *165:82 *1431:A 4.99619e-05
60 *165:82 *1533:CLK 8.92216e-05
61 *165:82 *332:46 1.77385e-05
62 *165:82 *466:47 0.000502809
63 *165:90 *1215:A1 2.49143e-05
64 *165:90 *1219:A1 0
65 *165:90 *1221:B2 0
66 *165:90 *1260:B2 0
67 *165:90 *1266:B2 0
68 *165:90 *1290:A0 0.000243403
69 *165:90 *1290:A1 0.000131017
70 *165:90 *1393:A1 7.23602e-05
71 *165:90 *1431:A 0.000167886
72 *165:90 *1465:CLK 5.23663e-05
73 *165:90 *1567:A 0
74 *165:90 *309:54 0.000875368
75 *165:90 *335:106 3.33035e-05
76 *165:90 *401:54 0
77 *165:120 *1430:A0 0.00019637
78 *165:120 *466:43 0.000158066
79 *165:120 *466:47 7.66083e-05
80 *165:139 *1211:A1 4.42895e-05
81 *165:139 *1430:A0 4.66108e-05
82 *165:139 *1432:A0 7.1624e-05
83 *165:139 *1518:CLK 0
84 *165:139 *1579:A 4.65865e-05
85 *165:139 *166:120 6.45858e-05
86 *165:139 *172:66 0.000333538
87 *165:139 *299:135 5.18694e-05
88 *165:139 *466:43 3.57349e-05
89 *165:171 *1184:A2 9.73303e-05
90 *165:171 *1227:A2 0
91 *165:171 *1234:B1 8.08153e-06
92 *165:171 *1254:A2 1.16578e-05
93 *165:171 *1296:A0 7.23602e-05
94 *165:171 *1298:A1 0.000137435
95 *165:171 *1332:A 5.62161e-05
96 *165:171 *1422:S 0
97 *165:171 *1428:A0 7.23602e-05
98 *165:171 *1483:CLK 0
99 *165:171 *245:33 0.000600065
100 *165:171 *258:60 0
101 *165:171 *330:50 0
102 *165:171 *422:30 2.96334e-05
103 *165:171 *422:50 5.4166e-05
104 *165:171 *437:89 5.89056e-05
105 *165:171 *437:122 0.00108098
106 *165:171 *455:50 0.000213522
107 *165:171 *455:74 0.000305636
108 *165:171 *455:78 1.80792e-05
109 *1190:A *165:38 0.000158655
110 *1190:A *165:63 7.32625e-05
111 *1198:A1 *1198:B1 0
112 *1227:A1 *1227:B1 4.66108e-05
113 *1254:A1 *1254:B1 3.66286e-05
114 *1254:A1 *165:171 4.99619e-05
115 *1459:D *165:90 0.000133453
116 *1481:D *165:171 0.000177148
117 *1483:D *165:171 0
118 *1501:D *165:82 2.50284e-05
119 *1515:D *165:171 0
120 *1533:D *1236:B1 4.82319e-06
121 *1533:D *165:63 0
122 *1534:D *165:63 9.21008e-05
123 *142:40 *165:38 0
124 *142:61 *165:8 4.77807e-05
125 *158:158 *165:90 4.47808e-05
126 *160:70 *1236:B1 1.31519e-05
127 *160:97 *1236:B1 1.71464e-05
128 *160:113 *165:139 0.000271039
129 *160:154 *1263:B1 8.65961e-05
*RES
1 *1189:X *165:8 4.05 
2 *165:8 *165:38 25.115 
3 *165:38 *1190:B 1.6 
4 *165:38 *165:63 17.5659 
5 *165:63 *1236:B1 5.89 
6 *165:63 *165:82 12.72 
7 *165:82 *165:90 22.805 
8 *165:90 *1245:B1 11.7 
9 *165:90 *1263:B1 6.03 
10 *165:82 *165:120 2.175 
11 *165:120 *1218:B1 1.6 
12 *165:120 *165:139 15.63 
13 *165:139 *1198:B1 7.275 
14 *165:139 *1209:B1 4.755 
15 *165:8 *165:171 29.315 
16 *165:171 *1227:B1 10.235 
17 *165:171 *1254:B1 2.05 
*END

*D_NET *166 0.0220741
*CONN
*I *1266:A2 I *D sky130_fd_sc_hd__o22a_1
*I *1221:A2 I *D sky130_fd_sc_hd__o22a_1
*I *1203:A2 I *D sky130_fd_sc_hd__o22a_1
*I *1212:A2 I *D sky130_fd_sc_hd__o22a_1
*I *1248:A2 I *D sky130_fd_sc_hd__o22a_1
*I *1230:A2 I *D sky130_fd_sc_hd__o22a_1
*I *1257:A2 I *D sky130_fd_sc_hd__o22a_1
*I *1239:A2 I *D sky130_fd_sc_hd__o22a_1
*I *1190:X O *D sky130_fd_sc_hd__or2_4
*CAP
1 *1266:A2 0.000412726
2 *1221:A2 0.000102513
3 *1203:A2 6.51163e-05
4 *1212:A2 0.000205666
5 *1248:A2 0.000381694
6 *1230:A2 0.000702399
7 *1257:A2 0.000169406
8 *1239:A2 0.000180234
9 *1190:X 0
10 *166:120 0.00150726
11 *166:78 0.000453436
12 *166:76 0.00249768
13 *166:25 0.0014488
14 *166:21 0.00100471
15 *166:10 0.000885537
16 *166:4 0.00198229
17 *1203:A2 *488:26 5.83517e-05
18 *1212:A2 *1212:B2 0.000358243
19 *1212:A2 *1343:A0 0
20 *1212:A2 *1434:A0 0
21 *1221:A2 *1301:A 0.000154355
22 *1221:A2 *335:106 7.27704e-06
23 *1230:A2 *1230:A1 1.25335e-05
24 *1230:A2 *1257:B2 0.000149411
25 *1230:A2 *1332:A 4.2801e-05
26 *1230:A2 *219:20 0
27 *1230:A2 *258:60 0
28 *1239:A2 *335:27 0.000275548
29 *1248:A2 *1243:B1 4.90457e-05
30 *1248:A2 *1248:B1 2.67022e-05
31 *1248:A2 *1334:A 9.50342e-06
32 *1248:A2 *1545:A 0.000343835
33 *1248:A2 *278:61 0
34 *1248:A2 *438:96 0.000110115
35 *1257:A2 *1257:B1 0.000122702
36 *1257:A2 *1258:A1 4.82863e-05
37 *1266:A2 *1260:A1 0
38 *1266:A2 *1260:B2 3.1191e-05
39 *1266:A2 *1266:A1 2.75229e-05
40 *1266:A2 *1347:A0 0
41 *1266:A2 *1597:A 0
42 *1266:A2 *175:74 0
43 *1266:A2 *335:106 6.54361e-06
44 *1266:A2 *401:54 0.000420196
45 *166:10 *1238:C1 0.000262995
46 *166:10 *1426:A0 4.05358e-05
47 *166:10 *1427:A 0.000473655
48 *166:10 *1545:A 1.45569e-05
49 *166:10 *176:34 0.00017446
50 *166:10 *278:61 0
51 *166:10 *299:14 8.08153e-06
52 *166:10 *328:10 6.28843e-05
53 *166:10 *328:75 4.366e-05
54 *166:21 *1545:A 3.67779e-05
55 *166:25 *1258:A1 0.000873914
56 *166:76 *1210:A1 5.01764e-05
57 *166:76 *1270:A1 0.000101386
58 *166:76 *1377:A0 8.35118e-05
59 *166:76 *1451:A 1.94238e-05
60 *166:76 *1502:CLK 0.000298501
61 *166:76 *1568:A 0.000156618
62 *166:76 *477:83 0.000121039
63 *166:78 *1202:A2 0.000122325
64 *166:78 *1212:B2 0.000511899
65 *166:78 *1434:A0 0
66 *166:78 *384:10 9.54399e-05
67 *166:120 *1202:A2 6.24133e-05
68 *166:120 *1211:A1 0.000154804
69 *166:120 *1212:B2 8.86398e-05
70 *166:120 *1220:A1 2.39856e-05
71 *166:120 *1260:B2 8.53011e-05
72 *166:120 *1261:B1 0.000273133
73 *166:120 *1290:A0 0.000119247
74 *166:120 *1300:A0 0.000136877
75 *166:120 *1300:S 0.000193355
76 *166:120 *1430:A0 0.000249928
77 *166:120 *1562:A 1.56428e-05
78 *166:120 *172:66 0.000135312
79 *166:120 *299:109 9.44932e-05
80 *166:120 *309:54 0.000437739
81 *166:120 *332:86 0.000122056
82 *166:120 *382:10 0.000116158
83 *1190:A *166:10 0.000173284
84 *1481:D *1230:A2 8.4878e-05
85 *1506:D *1230:A2 4.63004e-05
86 *160:70 *166:10 0.000413708
87 *160:99 *166:120 9.30717e-05
88 *160:113 *166:120 0.000273646
89 *160:150 *166:120 0.000306201
90 *163:86 *1266:A2 0.000177127
91 *165:38 *166:10 9.31543e-05
92 *165:63 *166:10 0.000122202
93 *165:63 *166:76 0.000111398
94 *165:139 *166:120 6.45858e-05
*RES
1 *1190:X *166:4 1.6 
2 *166:4 *166:10 18.56 
3 *166:10 *1239:A2 6.12 
4 *166:10 *166:21 0.87 
5 *166:21 *166:25 10.04 
6 *166:25 *1257:A2 3.775 
7 *166:25 *1230:A2 16.235 
8 *166:21 *1248:A2 11.865 
9 *166:4 *166:76 21.77 
10 *166:76 *166:78 5.97 
11 *166:78 *1212:A2 7.785 
12 *166:78 *1203:A2 4.395 
13 *166:76 *166:120 34.415 
14 *166:120 *1221:A2 5.745 
15 *166:120 *1266:A2 12.435 
*END

*D_NET *167 0.0237705
*CONN
*I *1206:A2 I *D sky130_fd_sc_hd__a22o_1
*I *1193:A2 I *D sky130_fd_sc_hd__a22o_1
*I *1215:A2 I *D sky130_fd_sc_hd__a22o_1
*I *1260:A2 I *D sky130_fd_sc_hd__a22o_1
*I *1242:A2 I *D sky130_fd_sc_hd__a22o_1
*I *1224:A2 I *D sky130_fd_sc_hd__a22o_1
*I *1251:A2 I *D sky130_fd_sc_hd__a22o_1
*I *1233:A2 I *D sky130_fd_sc_hd__a22o_1
*I *1191:X O *D sky130_fd_sc_hd__and3b_4
*CAP
1 *1206:A2 0.000236371
2 *1193:A2 0
3 *1215:A2 0.0003715
4 *1260:A2 0
5 *1242:A2 6.46776e-05
6 *1224:A2 2.04337e-05
7 *1251:A2 0.000105777
8 *1233:A2 0
9 *1191:X 7.2876e-05
10 *167:142 0.000926885
11 *167:136 0.00241118
12 *167:84 0.00119934
13 *167:65 0.00270698
14 *167:38 0.00214312
15 *167:25 0.000738954
16 *167:10 0.000581722
17 *167:6 0.00205031
18 *1206:A2 *1204:A1 0
19 *1206:A2 *1302:S 4.22861e-05
20 *1206:A2 *1360:A 7.1624e-05
21 *1206:A2 *1395:A0 3.90699e-05
22 *1206:A2 *1487:CLK 4.51607e-05
23 *1206:A2 *1581:A 5.79068e-05
24 *1206:A2 *331:36 1.66006e-05
25 *1206:A2 *331:38 1.64067e-05
26 *1215:A2 *1215:A1 2.79099e-05
27 *1215:A2 *1215:B1 8.8266e-05
28 *1215:A2 *1221:B2 7.77167e-06
29 *1215:A2 *1222:A1 0.000132201
30 *1215:A2 *1258:A1 9.27255e-06
31 *1215:A2 *1260:A1 0.000119251
32 *1215:A2 *1260:B2 3.93467e-05
33 *1215:A2 *1261:B1 0.000119873
34 *1215:A2 *1393:S 9.47778e-05
35 *1215:A2 *1465:CLK 1.37328e-05
36 *1215:A2 *245:102 3.52581e-05
37 *1224:A2 *1484:CLK 9.50342e-06
38 *1224:A2 *438:42 1.08194e-05
39 *1242:A2 *1242:A1 0
40 *1242:A2 *1243:B1 1.91597e-05
41 *1242:A2 *438:96 0.000105357
42 *1251:A2 *1251:B1 0.000159179
43 *1251:A2 *438:42 7.32625e-05
44 *167:6 *1181:A 0.000121659
45 *167:10 *288:68 0
46 *167:10 *437:42 7.32544e-05
47 *167:10 *438:10 3.98952e-05
48 *167:10 *444:46 3.09233e-05
49 *167:10 *512:59 9.23804e-06
50 *167:25 *1554:A 0.000141606
51 *167:25 *438:23 0.000308368
52 *167:25 *444:46 0.000150453
53 *167:38 *1225:A1 7.03219e-05
54 *167:38 *1225:B1 0.000158821
55 *167:38 *288:100 5.83121e-06
56 *167:38 *333:10 2.0187e-05
57 *167:38 *333:91 4.12775e-05
58 *167:38 *438:42 0.000149658
59 *167:65 *1222:A1 0
60 *167:65 *1242:A1 4.66108e-05
61 *167:65 *1248:B1 8.8266e-05
62 *167:65 *1257:B2 0
63 *167:65 *1352:A 7.23602e-05
64 *167:65 *1490:CLK 0.000102922
65 *167:65 *347:8 0.000124895
66 *167:65 *438:75 0.000111853
67 *167:65 *438:96 1.43392e-05
68 *167:84 *1215:B1 4.55864e-06
69 *167:84 *1243:B1 8.73389e-06
70 *167:84 *1347:S 0.000325026
71 *167:84 *1348:A 0.000249801
72 *167:84 *1383:A0 4.43682e-05
73 *167:84 *1383:S 0
74 *167:84 *176:77 0.000150029
75 *167:136 *1154:A 5.95279e-05
76 *167:136 *1155:A_N 0.000226591
77 *167:136 *1181:A 0.000121659
78 *167:136 *1194:A1 7.42989e-06
79 *167:136 *1363:A_N 4.66108e-05
80 *167:136 *1540:A 9.82856e-06
81 *167:136 *168:38 0.000281121
82 *167:136 *238:10 0.000107634
83 *167:136 *245:20 0.00027316
84 *167:136 *510:19 0.000689564
85 *167:142 *1204:A1 0
86 *167:142 *1487:CLK 8.93677e-05
87 *167:142 *1578:A 2.11084e-05
88 *167:142 *488:51 8.00073e-05
89 *167:142 *488:61 0.000282454
90 *1157:A *167:136 3.3485e-05
91 *1207:A2 *167:142 7.40687e-05
92 *1243:A2 *167:84 2.49909e-05
93 *1275:B *167:136 4.82919e-05
94 *1277:A *1224:A2 0
95 *1277:A *167:38 0
96 *1488:D *167:84 4.89295e-05
97 *139:14 *167:136 0.000236643
98 *152:18 *167:136 0.000131987
99 *152:46 *167:136 0.000185026
100 *152:61 *167:6 1.91597e-05
101 *152:61 *167:136 5.74791e-05
102 *158:45 *167:136 0.00139114
103 *158:45 *167:142 2.79137e-05
104 *158:83 *167:10 0
105 *158:83 *167:25 0
106 *158:83 *167:136 0.000527857
107 *158:91 *167:25 0.000509372
108 *158:102 *167:25 8.06833e-05
109 *158:102 *167:38 0.000105641
110 *158:135 *167:65 9.23502e-05
111 *160:45 *167:6 1.14192e-05
112 *160:45 *167:136 0.000218603
113 *163:70 *167:65 0
*RES
1 *1191:X *167:6 3.085 
2 *167:6 *167:10 6.44 
3 *167:10 *1233:A2 3.6 
4 *167:10 *167:25 12.605 
5 *167:25 *1251:A2 3.775 
6 *167:25 *167:38 9.5825 
7 *167:38 *1224:A2 4.0875 
8 *167:38 *167:65 14.9398 
9 *167:65 *1242:A2 3.5275 
10 *167:65 *167:84 18.34 
11 *167:84 *1260:A2 1.6 
12 *167:84 *1215:A2 13.205 
13 *167:6 *167:136 48.2 
14 *167:136 *167:142 11.33 
15 *167:142 *1193:A2 3.6 
16 *167:142 *1206:A2 8.79 
*END

*D_NET *168 0.0119607
*CONN
*I *1632:A I *D sky130_fd_sc_hd__clkbuf_2
*I *1193:B1 I *D sky130_fd_sc_hd__a22o_1
*I *1206:B1 I *D sky130_fd_sc_hd__a22o_1
*I *1192:Y O *D sky130_fd_sc_hd__nor3b_2
*CAP
1 *1632:A 0.000132439
2 *1193:B1 2.46505e-05
3 *1206:B1 0.00020052
4 *1192:Y 0.000124013
5 *168:38 0.00204095
6 *168:16 0.00207223
7 *1193:B1 *1193:A1 1.91597e-05
8 *1193:B1 *258:14 4.66108e-05
9 *1206:B1 *1206:B2 0.000154982
10 *1206:B1 *1360:A 1.19928e-05
11 *1206:B1 *1487:CLK 0.000150461
12 *1206:B1 *331:36 0.000186195
13 *1206:B1 *331:38 7.3553e-05
14 *1206:B1 *331:105 5.83121e-06
15 *1632:A *1283:C 4.66108e-05
16 *1632:A *437:42 0.000286851
17 *1632:A *437:81 1.56428e-05
18 *168:16 *1196:A 3.12916e-05
19 *168:16 *268:26 9.24948e-05
20 *168:16 *288:68 9.24948e-05
21 *168:38 *1152:B 0
22 *168:38 *1155:A_N 0.000347645
23 *168:38 *1155:B 8.40213e-05
24 *168:38 *1177:A 0.000114492
25 *168:38 *1193:A1 0.000119207
26 *168:38 *1193:B2 0.000160641
27 *168:38 *1327:A 4.82919e-05
28 *168:38 *1327:B 4.60584e-05
29 *168:38 *1328:A 1.7386e-05
30 *168:38 *1361:A0 0.000115281
31 *168:38 *1361:A1 4.82919e-05
32 *168:38 *1361:S 0.000270713
33 *168:38 *245:20 0
34 *168:38 *258:14 0.000653206
35 *168:38 *331:8 0.000507936
36 *168:38 *437:42 0.000998159
37 *1175:A1 *168:38 1.34594e-05
38 *1175:A2 *168:38 0.000390828
39 *1175:B1 *168:38 0.000197914
40 *1176:B *168:38 0.000272378
41 *1185:A2 *168:16 0.000266391
42 *1195:A_N *168:16 3.83194e-05
43 *157:60 *168:16 0.000303911
44 *157:69 *168:16 3.57349e-05
45 *158:83 *1632:A 0.000296478
46 *158:83 *168:38 0.000383989
47 *163:203 *1206:B1 0.000139878
48 *167:136 *168:38 0.000281121
*RES
1 *1192:Y *168:16 12.295 
2 *168:16 *168:38 47.525 
3 *168:38 *1206:B1 11.36 
4 *168:38 *1193:B1 2.41 
5 *168:16 *1632:A 7.725 
*END

*D_NET *169 0.00211716
*CONN
*I *1194:B1 I *D sky130_fd_sc_hd__a21o_1
*I *1193:X O *D sky130_fd_sc_hd__a22o_1
*CAP
1 *1194:B1 0.000564006
2 *1193:X 0.000564006
3 *1194:B1 *1194:A1 0.000136877
4 *1194:B1 *1652:A 0
5 *1194:B1 *258:14 0.000759194
6 *1194:B1 *488:61 9.30787e-05
*RES
1 *1193:X *1194:B1 15.84 
*END

*D_NET *170 0.00334637
*CONN
*I *1203:B1 I *D sky130_fd_sc_hd__o22a_1
*I *1194:X O *D sky130_fd_sc_hd__a21o_1
*CAP
1 *1203:B1 0.000623112
2 *1194:X 0.000623112
3 *1203:B1 *1201:A1 0.000235573
4 *1203:B1 *1203:B2 7.86219e-05
5 *1203:B1 *1204:A1 0.000464499
6 *1203:B1 *1379:A0 0.000144369
7 *1203:B1 *1434:A0 0.000164874
8 *1203:B1 *1435:A 0.000186667
9 *1203:B1 *360:6 0.000158066
10 *1203:B1 *488:26 1.31519e-05
11 *1203:B1 *488:32 0.000112631
12 *1207:A2 *1203:B1 4.8854e-05
13 *163:197 *1203:B1 0.000492836
*RES
1 *1194:X *1203:B1 23.055 
*END

*D_NET *171 0.00119214
*CONN
*I *1196:A I *D sky130_fd_sc_hd__buf_2
*I *1195:X O *D sky130_fd_sc_hd__and3b_1
*CAP
1 *1196:A 0.000299283
2 *1195:X 0.000299283
3 *1196:A *172:26 1.72577e-05
4 *1196:A *175:14 2.49909e-05
5 *1196:A *512:82 1.19928e-05
6 *1184:B1 *1196:A 6.69221e-05
7 *1195:A_N *1196:A 4.66108e-05
8 *152:24 *1196:A 4.66108e-05
9 *157:69 *1196:A 0.000104588
10 *157:75 *1196:A 0.000121659
11 *157:86 *1196:A 0.000121653
12 *168:16 *1196:A 3.12916e-05
*RES
1 *1195:X *1196:A 9.545 
*END

*D_NET *172 0.0217792
*CONN
*I *1247:A2 I *D sky130_fd_sc_hd__a211o_1
*I *1265:A2 I *D sky130_fd_sc_hd__a211o_1
*I *1256:A2 I *D sky130_fd_sc_hd__a211o_1
*I *1229:A2 I *D sky130_fd_sc_hd__a211o_1
*I *1211:A2 I *D sky130_fd_sc_hd__a211o_1
*I *1202:A2 I *D sky130_fd_sc_hd__a211o_1
*I *1220:A2 I *D sky130_fd_sc_hd__a211o_1
*I *1238:A2 I *D sky130_fd_sc_hd__a211o_1
*I *1196:X O *D sky130_fd_sc_hd__buf_2
*CAP
1 *1247:A2 0
2 *1265:A2 0.00113284
3 *1256:A2 3.33952e-05
4 *1229:A2 0.00050154
5 *1211:A2 3.29282e-05
6 *1202:A2 0.000226923
7 *1220:A2 0
8 *1238:A2 1.10378e-05
9 *1196:X 0.00151778
10 *172:110 0.00108241
11 *172:108 0.00192036
12 *172:98 0.00098718
13 *172:66 0.000687308
14 *172:53 0.00108377
15 *172:28 0.000667355
16 *172:26 0.00226491
17 *1202:A2 *1202:A1 0.000200615
18 *1202:A2 *1202:B1 0.000198939
19 *1202:A2 *1434:S 0
20 *1202:A2 *477:83 6.90254e-05
21 *1211:A2 *1211:C1 0.000121043
22 *1211:A2 *1432:A0 6.62684e-05
23 *1229:A2 *1229:A1 0.000264794
24 *1229:A2 *1256:A1 6.44049e-05
25 *1229:A2 *1422:A0 8.23457e-05
26 *1229:A2 *1601:A 0.00014766
27 *1229:A2 *378:14 0.000197826
28 *1229:A2 *422:30 5.54216e-05
29 *1238:A2 *425:28 8.06393e-06
30 *1256:A2 *1256:A1 9.53428e-06
31 *1265:A2 *1265:A1 2.7919e-05
32 *1265:A2 *1265:B1 4.22928e-05
33 *1265:A2 *1265:C1 2.10034e-05
34 *1265:A2 *1406:A0 0.000119762
35 *1265:A2 *1522:CLK 0.000232403
36 *1265:A2 *1582:A 5.748e-05
37 *1265:A2 *1608:A 8.65961e-05
38 *1265:A2 *379:6 1.13785e-05
39 *172:26 *1237:A1 9.12856e-05
40 *172:26 *1238:A1 0.000162332
41 *172:26 *1238:B1 0.000125618
42 *172:26 *1238:C1 8.35118e-05
43 *172:26 *1444:A0 4.28112e-06
44 *172:26 *1448:A0 0
45 *172:26 *1531:CLK 9.12671e-06
46 *172:26 *1612:A 6.30072e-05
47 *172:26 *1651:A 6.79994e-05
48 *172:26 *175:14 0.000812697
49 *172:26 *175:33 0.000141016
50 *172:26 *309:10 2.87133e-05
51 *172:53 *1220:A1 3.26889e-05
52 *172:53 *1221:B2 0.000141294
53 *172:53 *1239:B2 8.65961e-05
54 *172:53 *1357:A1 0.000571395
55 *172:53 *1358:A 5.40592e-05
56 *172:53 *1393:A1 0.000159864
57 *172:53 *1394:A 8.57024e-05
58 *172:53 *425:28 0.000582748
59 *172:66 *1211:C1 0.000112589
60 *172:66 *1220:A1 9.45279e-05
61 *172:66 *1220:B1 0.000128437
62 *172:66 *1220:C1 0.000136884
63 *172:66 *1221:B2 1.31519e-05
64 *172:66 *309:54 8.08153e-06
65 *172:66 *309:56 0.000150487
66 *172:66 *425:28 1.12578e-05
67 *172:98 *1247:A1 7.9642e-06
68 *172:98 *1294:A1 6.87001e-05
69 *172:98 *1295:A 0.000107907
70 *172:98 *1544:A 0
71 *172:98 *1651:A 0.000759758
72 *172:98 *254:109 1.93834e-05
73 *172:98 *328:20 0
74 *172:98 *433:20 7.74326e-05
75 *172:98 *433:22 4.71081e-05
76 *172:108 *1618:A 3.3505e-05
77 *172:108 *1651:A 0.000282842
78 *172:108 *254:109 4.66742e-05
79 *172:108 *278:61 0
80 *172:110 *1256:A1 2.11084e-05
81 *172:110 *1256:B1 2.49909e-05
82 *172:110 *1256:C1 0.000329418
83 *172:110 *379:6 2.65814e-06
84 *1184:B1 *172:26 5.83121e-06
85 *1196:A *172:26 1.72577e-05
86 *1456:D *172:98 0.000298473
87 *1493:D *172:98 0
88 *1522:D *1265:A2 5.89757e-06
89 *1531:D *172:26 4.89395e-05
90 *1533:D *172:26 5.33787e-05
91 *160:45 *172:26 0.000377167
92 *160:99 *172:66 4.31189e-05
93 *160:150 *172:66 0.000252236
94 *165:63 *172:26 0
95 *165:139 *172:66 0.000333538
96 *166:78 *1202:A2 0.000122325
97 *166:120 *1202:A2 6.24133e-05
98 *166:120 *172:66 0.000135312
*RES
1 *1196:X *172:26 35.95 
2 *172:26 *172:28 2 
3 *172:28 *1238:A2 1.8775 
4 *172:28 *172:53 16.35 
5 *172:53 *1220:A2 1.6 
6 *172:53 *172:66 15.005 
7 *172:66 *1202:A2 9.615 
8 *172:66 *1211:A2 4.74 
9 *172:26 *172:98 19.535 
10 *172:98 *172:108 8.575 
11 *172:108 *172:110 9.075 
12 *172:110 *1229:A2 10.6 
13 *172:110 *1256:A2 2.215 
14 *172:108 *1265:A2 17.29 
15 *172:98 *1247:A2 1.6 
*END

*D_NET *173 0.00016992
*CONN
*I *1198:A2 I *D sky130_fd_sc_hd__a21oi_1
*I *1197:Y O *D sky130_fd_sc_hd__inv_2
*CAP
1 *1198:A2 4.82735e-05
2 *1197:Y 4.82735e-05
3 *1198:A1 *1198:A2 7.33728e-05
*RES
1 *1197:Y *1198:A2 4.34 
*END

*D_NET *174 0.00094393
*CONN
*I *1202:B1 I *D sky130_fd_sc_hd__a211o_1
*I *1198:Y O *D sky130_fd_sc_hd__a21oi_1
*CAP
1 *1202:B1 0.000315099
2 *1198:Y 0.000315099
3 *1202:B1 *1202:A1 4.89503e-05
4 *1202:B1 *1563:A 6.58423e-05
5 *1202:A2 *1202:B1 0.000198939
*RES
1 *1198:Y *1202:B1 8.855 
*END

*D_NET *175 0.0209489
*CONN
*I *1264:A2 I *D sky130_fd_sc_hd__a22o_1
*I *1246:A2 I *D sky130_fd_sc_hd__a22o_1
*I *1255:A2 I *D sky130_fd_sc_hd__a22o_1
*I *1228:A2 I *D sky130_fd_sc_hd__a22o_1
*I *1219:A2 I *D sky130_fd_sc_hd__a22o_1
*I *1201:A2 I *D sky130_fd_sc_hd__a22o_1
*I *1210:A2 I *D sky130_fd_sc_hd__a22o_1
*I *1237:A2 I *D sky130_fd_sc_hd__a22o_1
*I *1199:Y O *D sky130_fd_sc_hd__nor3b_4
*CAP
1 *1264:A2 0.000201985
2 *1246:A2 0.000178782
3 *1255:A2 0
4 *1228:A2 0.000720479
5 *1219:A2 1.65033e-05
6 *1201:A2 0.00027944
7 *1210:A2 1.19676e-05
8 *1237:A2 1.29635e-05
9 *1199:Y 0.00100616
10 *175:86 0.0010387
11 *175:78 0.00119487
12 *175:74 0.00171082
13 *175:63 0.0010084
14 *175:50 0.00102024
15 *175:33 0.00103926
16 *175:14 0.00148653
17 *1201:A2 *1201:B1 0.000170369
18 *1201:A2 *1375:S 0.000178893
19 *1201:A2 *1377:A0 7.03276e-05
20 *1201:A2 *278:31 0.000368228
21 *1201:A2 *332:10 0
22 *1210:A2 *1210:A1 4.66108e-05
23 *1210:A2 *1210:B2 4.77757e-05
24 *1219:A2 *1219:A1 4.66108e-05
25 *1219:A2 *332:74 2.49909e-05
26 *1228:A2 *1228:B1 0.000730166
27 *1228:A2 *1229:C1 8.6317e-05
28 *1228:A2 *1255:A1 9.32375e-05
29 *1228:A2 *1446:A1 1.22325e-05
30 *1228:A2 *1497:CLK 7.27003e-05
31 *1228:A2 *1556:A 5.4294e-05
32 *1228:A2 *354:6 0.00016148
33 *1237:A2 *1237:A1 5.19006e-06
34 *1246:A2 *1651:A 7.43101e-05
35 *1246:A2 *176:95 0.00017662
36 *1246:A2 *433:14 0.000234427
37 *1246:A2 *433:16 8.14286e-05
38 *1246:A2 *433:18 0.000201113
39 *1264:A2 *1264:A1 2.88357e-05
40 *1264:A2 *1264:B2 4.89395e-05
41 *1264:A2 *176:77 0.000106193
42 *1264:A2 *353:6 3.82293e-05
43 *175:14 *1237:A1 2.88357e-05
44 *175:14 *1237:B2 8.23457e-05
45 *175:14 *176:24 3.83194e-05
46 *175:14 *388:8 0.000276619
47 *175:33 *1237:A1 5.11665e-05
48 *175:33 *1451:A 0.000156858
49 *175:33 *391:12 3.35022e-05
50 *175:50 *431:16 0.000717003
51 *175:63 *1201:B1 8.65529e-06
52 *175:63 *1219:A1 0.000105776
53 *175:63 *1375:S 0.000164791
54 *175:63 *1547:A 6.04161e-05
55 *175:63 *176:64 4.69705e-05
56 *175:63 *466:51 0.000184772
57 *175:63 *466:73 0.000155928
58 *175:74 *1222:A1 6.8015e-05
59 *175:74 *1260:A1 0.000363093
60 *175:74 *1265:C1 0
61 *175:74 *1393:S 0.000593606
62 *175:74 *1421:A 6.53365e-05
63 *175:74 *1431:A 0
64 *175:74 *1597:A 0.000109989
65 *175:74 *176:77 0.00176152
66 *175:74 *401:54 0
67 *175:74 *466:73 0.000195939
68 *175:78 *1407:A 4.77719e-05
69 *175:86 *1256:C1 5.86575e-05
70 *175:86 *1370:A 8.65905e-05
71 *175:86 *278:61 8.33066e-06
72 *1184:B1 *175:14 5.35181e-06
73 *1196:A *175:14 2.49909e-05
74 *1266:A2 *175:74 0
75 *1497:D *1228:A2 2.97923e-05
76 *1498:D *175:86 7.32598e-05
77 *1514:D *175:78 3.1522e-05
78 *1520:D *175:74 0.000140905
79 *1525:D *175:74 0
80 *1531:D *175:14 1.49019e-05
81 *1534:D *175:33 5.14416e-05
82 *160:45 *175:14 3.21413e-05
83 *165:63 *175:33 1.50269e-05
84 *165:63 *175:50 1.84465e-05
85 *172:26 *175:14 0.000812697
86 *172:26 *175:33 0.000141016
*RES
1 *1199:Y *175:14 18.325 
2 *175:14 *1237:A2 1.96 
3 *175:14 *175:33 10.595 
4 *175:33 *1210:A2 4.05 
5 *175:33 *175:50 2.37757 
6 *175:50 *1201:A2 10.6575 
7 *175:50 *175:63 5.8425 
8 *175:63 *1219:A2 4.05 
9 *175:63 *175:74 24.84 
10 *175:74 *175:78 12.11 
11 *175:78 *175:86 9.7 
12 *175:86 *1228:A2 16.525 
13 *175:86 *1255:A2 1.6 
14 *175:78 *1246:A2 11.825 
15 *175:74 *1264:A2 7.785 
*END

*D_NET *176 0.0214077
*CONN
*I *1237:B1 I *D sky130_fd_sc_hd__a22o_1
*I *1264:B1 I *D sky130_fd_sc_hd__a22o_1
*I *1246:B1 I *D sky130_fd_sc_hd__a22o_1
*I *1255:B1 I *D sky130_fd_sc_hd__a22o_1
*I *1228:B1 I *D sky130_fd_sc_hd__a22o_1
*I *1219:B1 I *D sky130_fd_sc_hd__a22o_1
*I *1201:B1 I *D sky130_fd_sc_hd__a22o_1
*I *1210:B1 I *D sky130_fd_sc_hd__a22o_1
*I *1200:X O *D sky130_fd_sc_hd__and3b_4
*CAP
1 *1237:B1 0
2 *1264:B1 0.000114693
3 *1246:B1 0
4 *1255:B1 0
5 *1228:B1 0.000586632
6 *1219:B1 0
7 *1201:B1 0.000481095
8 *1210:B1 0
9 *1200:X 0.000832605
10 *176:95 0.000829244
11 *176:87 0.00108346
12 *176:77 0.00213887
13 *176:64 0.0014691
14 *176:45 0.00128217
15 *176:34 0.000882947
16 *176:24 0.00120025
17 *1201:B1 *1201:B2 1.37328e-05
18 *1201:B1 *1202:C1 2.34602e-05
19 *1201:B1 *1210:A1 0.000170594
20 *1201:B1 *1377:A0 4.61749e-05
21 *1201:B1 *332:10 0
22 *1201:B1 *332:29 0
23 *1201:B1 *332:42 0
24 *1201:B1 *392:8 0
25 *1228:B1 *1228:B2 2.08971e-05
26 *1228:B1 *1255:A1 1.42674e-05
27 *1228:B1 *1373:A0 0.000197227
28 *1228:B1 *1497:CLK 0.000122801
29 *1228:B1 *1556:A 0.00016947
30 *1228:B1 *278:75 0.000646943
31 *176:24 *1237:B2 7.14699e-05
32 *176:24 *1270:A1 0.000121244
33 *176:24 *1285:A1 0.00042293
34 *176:24 *1285:A2 2.38571e-05
35 *176:24 *1285:B1 8.41384e-05
36 *176:24 *1444:A0 0.000309804
37 *176:24 *1536:A 0.000308645
38 *176:24 *258:40 9.18057e-05
39 *176:24 *299:14 3.22029e-05
40 *176:24 *388:8 0.000122817
41 *176:34 *1210:B2 5.06989e-05
42 *176:34 *1238:C1 4.80824e-05
43 *176:34 *1534:CLK 0.000105881
44 *176:34 *1651:A 2.94543e-05
45 *176:34 *356:8 0.000156767
46 *176:45 *1210:A1 0.000271077
47 *176:45 *1210:B2 1.05984e-05
48 *176:45 *1450:A0 8.1444e-05
49 *176:45 *1526:CLK 0.00023422
50 *176:45 *1548:A 7.11235e-06
51 *176:64 *1572:A 2.97004e-06
52 *176:64 *332:42 0
53 *176:64 *332:74 0
54 *176:64 *466:51 0.000102349
55 *176:64 *466:73 8.60912e-05
56 *176:77 *1215:B1 0.000114205
57 *176:77 *1383:A1 0
58 *176:77 *1406:A1 0
59 *176:77 *1572:A 0.000127238
60 *176:77 *1608:A 4.92096e-05
61 *176:77 *319:84 0
62 *176:77 *335:12 4.10273e-05
63 *176:77 *335:85 0
64 *176:77 *466:73 0.00011398
65 *176:87 *1246:A1 0.000229059
66 *176:87 *1246:B2 5.4155e-06
67 *176:87 *1365:A0 0.000122155
68 *176:87 *1365:S 0.000385718
69 *176:87 *1438:A1 0.000175797
70 *176:87 *1439:A 2.05056e-05
71 *176:87 *1530:CLK 0
72 *176:87 *1550:A 0.000187468
73 *176:95 *1651:A 0.000328399
74 *176:95 *278:75 0.000230656
75 *1184:A1 *176:24 2.50484e-05
76 *1185:A2 *176:24 7.28776e-05
77 *1201:A2 *1201:B1 0.000170369
78 *1228:A2 *1228:B1 0.000730166
79 *1245:A1 *176:77 5.11528e-05
80 *1246:A2 *176:95 0.00017662
81 *1264:A2 *176:77 0.000106193
82 *1497:D *1228:B1 7.71385e-05
83 *1504:D *176:77 0
84 *142:40 *176:24 5.52603e-05
85 *165:38 *176:24 0.000529833
86 *166:10 *176:34 0.00017446
87 *167:84 *176:77 0.000150029
88 *175:14 *176:24 3.83194e-05
89 *175:63 *1201:B1 8.65529e-06
90 *175:63 *176:64 4.69705e-05
91 *175:74 *176:77 0.00176152
*RES
1 *1200:X *176:24 24.695 
2 *176:24 *176:34 11.605 
3 *176:34 *1210:B1 1.6 
4 *176:34 *176:45 9.02 
5 *176:45 *1201:B1 11.7 
6 *176:45 *176:64 5.46 
7 *176:64 *1219:B1 3.6 
8 *176:64 *176:77 27.3975 
9 *176:77 *176:87 17.2325 
10 *176:87 *176:95 10.105 
11 *176:95 *1228:B1 16.93 
12 *176:95 *1255:B1 1.6 
13 *176:87 *1246:B1 1.6 
14 *176:77 *1264:B1 5.6775 
15 *176:24 *1237:B1 1.6 
*END

*D_NET *177 0.000462424
*CONN
*I *1202:C1 I *D sky130_fd_sc_hd__a211o_1
*I *1201:X O *D sky130_fd_sc_hd__a22o_1
*CAP
1 *1202:C1 0.000219482
2 *1201:X 0.000219482
3 *1201:B1 *1202:C1 2.34602e-05
*RES
1 *1201:X *1202:C1 6.68 
*END

*D_NET *178 0.00120305
*CONN
*I *1203:B2 I *D sky130_fd_sc_hd__o22a_1
*I *1202:X O *D sky130_fd_sc_hd__a211o_1
*CAP
1 *1203:B2 0.000126174
2 *1202:X 0.000126174
3 *1203:B2 *1434:A0 0.000344374
4 *1203:B2 *1434:S 0.000297754
5 *1203:B2 *488:26 0.000229953
6 *1203:B1 *1203:B2 7.86219e-05
*RES
1 *1202:X *1203:B2 12.81 
*END

*D_NET *179 0.00263432
*CONN
*I *1204:A1 I *D sky130_fd_sc_hd__mux2_1
*I *1203:X O *D sky130_fd_sc_hd__o22a_1
*CAP
1 *1204:A1 0.000786549
2 *1203:X 0.000786549
3 *1204:A1 *1343:A1 2.34345e-05
4 *1204:A1 *1344:A 0.000245893
5 *1204:A1 *1395:A0 0.000153546
6 *1204:A1 *1487:CLK 0
7 *1204:A1 *1581:A 8.07688e-05
8 *1203:B1 *1204:A1 0.000464499
9 *1206:A2 *1204:A1 0
10 *1207:A2 *1204:A1 0
11 *1487:D *1204:A1 9.30787e-05
12 *167:142 *1204:A1 0
*RES
1 *1203:X *1204:A1 20.985 
*END

*D_NET *180 0.00017011
*CONN
*I *1205:A I *D sky130_fd_sc_hd__clkbuf_1
*I *1204:X O *D sky130_fd_sc_hd__mux2_1
*CAP
1 *1205:A 4.55001e-05
2 *1204:X 4.55001e-05
3 *1205:A *413:20 3.13329e-05
4 *1205:A *413:32 4.77769e-05
*RES
1 *1204:X *1205:A 4.265 
*END

*D_NET *181 0.00120937
*CONN
*I *1207:B1 I *D sky130_fd_sc_hd__a21o_1
*I *1206:X O *D sky130_fd_sc_hd__a22o_1
*CAP
1 *1207:B1 0.000454233
2 *1206:X 0.000454233
3 *1207:B1 *1303:A 2.88689e-05
4 *1207:B1 *331:105 0.000241098
5 *1207:B1 *331:114 3.0933e-05
*RES
1 *1206:X *1207:B1 13.425 
*END

*D_NET *182 0.000800838
*CONN
*I *1212:B1 I *D sky130_fd_sc_hd__o22a_1
*I *1207:X O *D sky130_fd_sc_hd__a21o_1
*CAP
1 *1212:B1 0.00023082
2 *1207:X 0.00023082
3 *1212:B1 *1212:A1 0.000157589
4 *1212:B1 *1212:B2 4.99619e-05
5 *1212:B1 *1213:A1 0
6 *1212:B1 *1302:S 9.51579e-05
7 *1212:B1 *1341:S 3.64886e-05
8 *1212:B1 *1359:A0 0
*RES
1 *1207:X *1212:B1 11.31 
*END

*D_NET *183 0.000692127
*CONN
*I *1209:A2 I *D sky130_fd_sc_hd__a21oi_1
*I *1208:Y O *D sky130_fd_sc_hd__inv_2
*CAP
1 *1209:A2 0.000179496
2 *1208:Y 0.000179496
3 *1209:A2 *1518:CLK 0.000119196
4 *1209:A2 *299:135 2.76356e-05
5 *1209:A1 *1209:A2 4.89362e-05
6 *1463:D *1209:A2 3.91427e-06
7 *160:113 *1209:A2 0.000133453
*RES
1 *1208:Y *1209:A2 10.425 
*END

*D_NET *184 0.000205615
*CONN
*I *1211:B1 I *D sky130_fd_sc_hd__a211o_1
*I *1209:Y O *D sky130_fd_sc_hd__a21oi_1
*CAP
1 *1211:B1 6.94075e-05
2 *1209:Y 6.94075e-05
3 *1211:B1 *1211:C1 3.59921e-05
4 *1211:B1 *1432:A0 3.5678e-06
5 *1211:B1 *1518:CLK 1.20052e-05
6 *1209:B1 *1211:B1 1.52352e-05
*RES
1 *1209:Y *1211:B1 4.715 
*END

*D_NET *185 0.00365874
*CONN
*I *1211:C1 I *D sky130_fd_sc_hd__a211o_1
*I *1210:X O *D sky130_fd_sc_hd__a22o_1
*CAP
1 *1211:C1 0.0012065
2 *1210:X 0.0012065
3 *1211:C1 *1210:B2 3.63206e-05
4 *1211:C1 *1211:A1 2.44698e-05
5 *1211:C1 *1212:B2 8.35118e-05
6 *1211:C1 *1432:A0 4.61125e-05
7 *1211:C1 *1451:A 4.77757e-05
8 *1211:C1 *1526:CLK 8.88974e-05
9 *1211:C1 *1548:A 0.000487319
10 *1211:C1 *309:56 5.87002e-05
11 *1211:C1 *477:83 1.08758e-05
12 *1211:C1 *477:100 5.19006e-06
13 *1209:B1 *1211:C1 5.69152e-05
14 *1211:A2 *1211:C1 0.000121043
15 *1211:B1 *1211:C1 3.59921e-05
16 *1526:D *1211:C1 3.00216e-05
17 *172:66 *1211:C1 0.000112589
*RES
1 *1210:X *1211:C1 24.6 
*END

*D_NET *186 0.00252551
*CONN
*I *1212:B2 I *D sky130_fd_sc_hd__o22a_1
*I *1211:X O *D sky130_fd_sc_hd__a211o_1
*CAP
1 *1212:B2 0.000603701
2 *1211:X 0.000603701
3 *1212:B2 *1203:A1 6.28843e-05
4 *1212:B2 *1341:S 4.82919e-05
5 *1212:B2 *1342:A 0
6 *1212:B2 *1343:A0 0
7 *1212:B2 *1417:A 0
8 *1212:B2 *1519:CLK 0
9 *1212:B2 *331:133 0
10 *1198:A1 *1212:B2 0
11 *1198:B1 *1212:B2 0.000114671
12 *1211:C1 *1212:B2 8.35118e-05
13 *1212:A2 *1212:B2 0.000358243
14 *1212:B1 *1212:B2 4.99619e-05
15 *166:78 *1212:B2 0.000511899
16 *166:120 *1212:B2 8.86398e-05
*RES
1 *1211:X *1212:B2 20.28 
*END

*D_NET *187 0.00118331
*CONN
*I *1213:A1 I *D sky130_fd_sc_hd__mux2_1
*I *1212:X O *D sky130_fd_sc_hd__o22a_1
*CAP
1 *1213:A1 0.000367527
2 *1212:X 0.000367527
3 *1213:A1 *1302:A0 0.000381225
4 *1213:A1 *1302:S 4.40028e-05
5 *1213:A1 *477:22 2.30258e-05
6 *1212:B1 *1213:A1 0
*RES
1 *1212:X *1213:A1 12.315 
*END

*D_NET *188 0.00132724
*CONN
*I *1214:A I *D sky130_fd_sc_hd__clkbuf_1
*I *1213:X O *D sky130_fd_sc_hd__mux2_1
*CAP
1 *1214:A 0.000330626
2 *1213:X 0.000330626
3 *1214:A *1302:A0 7.18795e-06
4 *1214:A *1302:S 3.64998e-06
5 *1214:A *1316:A 0.000198001
6 *1214:A *331:133 2.99026e-05
7 *1214:A *413:20 0.000196058
8 *1214:A *488:16 0.000231187
*RES
1 *1213:X *1214:A 13.59 
*END

*D_NET *189 0.00169238
*CONN
*I *1216:B1 I *D sky130_fd_sc_hd__a21o_1
*I *1215:X O *D sky130_fd_sc_hd__a22o_1
*CAP
1 *1216:B1 0.000313736
2 *1215:X 0.000313736
3 *1216:B1 *1258:A1 0.000680425
4 *1216:B1 *1259:A 9.09788e-06
5 *1216:B1 *1300:S 4.82863e-05
6 *1216:B1 *1301:A 1.33293e-05
7 *1216:B1 *1465:CLK 0.000234983
8 *1216:B1 *1570:A 3.1889e-05
9 *1216:B1 *466:35 1.6783e-05
10 *1465:D *1216:B1 3.01092e-05
*RES
1 *1215:X *1216:B1 16.02 
*END

*D_NET *190 0.00159466
*CONN
*I *1221:B1 I *D sky130_fd_sc_hd__o22a_1
*I *1216:X O *D sky130_fd_sc_hd__a21o_1
*CAP
1 *1221:B1 0.000691576
2 *1216:X 0.000691576
3 *1221:B1 *1221:A1 6.16808e-05
4 *1221:B1 *1221:B2 1.79098e-05
5 *1221:B1 *335:85 7.93221e-05
6 *1216:A2 *1221:B1 4.77757e-05
7 *1459:D *1221:B1 4.82319e-06
*RES
1 *1216:X *1221:B1 11.42 
*END

*D_NET *191 0.00168284
*CONN
*I *1218:A2 I *D sky130_fd_sc_hd__a21oi_1
*I *1217:Y O *D sky130_fd_sc_hd__inv_2
*CAP
1 *1218:A2 0.00058284
2 *1217:Y 0.00058284
3 *1218:A2 *1217:A 9.22308e-05
4 *1218:A2 *1412:A0 4.12144e-05
5 *1218:A2 *1412:S 7.08554e-05
6 *1218:A2 *1413:A 0
7 *1218:A2 *1430:A0 4.82919e-05
8 *1218:A2 *299:109 6.84877e-05
9 *1218:A2 *466:35 9.5615e-05
10 *1218:A2 *466:43 4.55933e-05
11 *1517:D *1218:A2 5.48747e-05
*RES
1 *1217:Y *1218:A2 20.845 
*END

*D_NET *192 0.00109271
*CONN
*I *1220:B1 I *D sky130_fd_sc_hd__a211o_1
*I *1218:Y O *D sky130_fd_sc_hd__a21oi_1
*CAP
1 *1220:B1 0.000190027
2 *1218:Y 0.000190027
3 *1220:B1 *1220:C1 0.000136884
4 *1220:B1 *309:54 0.000373551
5 *1220:B1 *309:56 9.50342e-06
6 *1220:B1 *466:43 6.42765e-05
7 *172:66 *1220:B1 0.000128437
*RES
1 *1218:Y *1220:B1 12.795 
*END

*D_NET *193 0.00157431
*CONN
*I *1220:C1 I *D sky130_fd_sc_hd__a211o_1
*I *1219:X O *D sky130_fd_sc_hd__a22o_1
*CAP
1 *1220:C1 0.000481191
2 *1219:X 0.000481191
3 *1220:C1 *332:74 0.000164874
4 *1220:C1 *332:78 0.000173282
5 *1220:B1 *1220:C1 0.000136884
6 *172:66 *1220:C1 0.000136884
*RES
1 *1219:X *1220:C1 14.46 
*END

*D_NET *194 0.00150315
*CONN
*I *1221:B2 I *D sky130_fd_sc_hd__o22a_1
*I *1220:X O *D sky130_fd_sc_hd__a211o_1
*CAP
1 *1221:B2 0.000452228
2 *1220:X 0.000452228
3 *1221:B2 *1215:A1 8.04442e-05
4 *1221:B2 *1215:B2 0
5 *1221:B2 *1301:A 0.000106713
6 *1221:B2 *1393:A1 0.000163204
7 *1221:B2 *1393:S 0
8 *1221:B2 *1465:CLK 1.92667e-05
9 *1221:B2 *335:85 4.89395e-05
10 *1215:A2 *1221:B2 7.77167e-06
11 *1221:B1 *1221:B2 1.79098e-05
12 *165:90 *1221:B2 0
13 *172:53 *1221:B2 0.000141294
14 *172:66 *1221:B2 1.31519e-05
*RES
1 *1220:X *1221:B2 15.765 
*END

*D_NET *195 0.0108351
*CONN
*I *1222:A1 I *D sky130_fd_sc_hd__mux2_1
*I *1221:X O *D sky130_fd_sc_hd__o22a_1
*CAP
1 *1222:A1 0.00498162
2 *1221:X 0.00498162
3 *1222:A1 *1393:S 8.33066e-06
4 *1222:A1 *254:46 8.7943e-06
5 *1222:A1 *438:96 0.000100577
6 *1215:A2 *1222:A1 0.000132201
7 *158:135 *1222:A1 0.000137846
8 *158:158 *1222:A1 0.000410761
9 *163:24 *1222:A1 5.31158e-06
10 *167:65 *1222:A1 0
11 *175:74 *1222:A1 6.8015e-05
*RES
1 *1221:X *1222:A1 18.2957 
*END

*D_NET *196 0.00061803
*CONN
*I *1223:A I *D sky130_fd_sc_hd__clkbuf_1
*I *1222:X O *D sky130_fd_sc_hd__mux2_1
*CAP
1 *1223:A 0.000114031
2 *1222:X 0.000114031
3 *1223:A *1492:CLK 0
4 *1223:A *1648:A 0.000320518
5 *1223:A *254:46 0
6 *1223:A *254:61 0
7 *1469:RESET_B *1223:A 6.9451e-05
*RES
1 *1222:X *1223:A 10.875 
*END

*D_NET *197 0.000601891
*CONN
*I *1225:B1 I *D sky130_fd_sc_hd__a21o_1
*I *1224:X O *D sky130_fd_sc_hd__a22o_1
*CAP
1 *1225:B1 0.000173177
2 *1224:X 0.000173177
3 *1225:B1 *1299:A 4.89395e-05
4 *1277:A *1225:B1 0
5 *158:135 *1225:B1 4.77769e-05
6 *167:38 *1225:B1 0.000158821
*RES
1 *1224:X *1225:B1 11.07 
*END

*D_NET *198 0.000935784
*CONN
*I *1230:B1 I *D sky130_fd_sc_hd__o22a_1
*I *1225:X O *D sky130_fd_sc_hd__a21o_1
*CAP
1 *1230:B1 0.000147659
2 *1225:X 0.000147659
3 *1230:B1 *1230:B2 0.000192509
4 *1230:B1 *1231:A1 0.000113404
5 *1230:B1 *1298:A1 2.21074e-05
6 *1230:B1 *1298:S 2.87433e-05
7 *1230:B1 *1299:A 8.64599e-05
8 *158:135 *1230:B1 0.000197243
*RES
1 *1225:X *1230:B1 7.79 
*END

*D_NET *199 0.00222822
*CONN
*I *1227:A2 I *D sky130_fd_sc_hd__a21oi_1
*I *1226:Y O *D sky130_fd_sc_hd__inv_2
*CAP
1 *1227:A2 0.000654666
2 *1226:Y 0.000654666
3 *1227:A2 *1230:B2 9.16315e-05
4 *1227:A2 *1254:A2 0.000279587
5 *1227:A2 *422:30 9.5433e-05
6 *1227:A2 *425:55 0.00016141
7 *1277:A *1227:A2 0.000200486
8 *1524:D *1227:A2 9.03376e-05
9 *165:171 *1227:A2 0
*RES
1 *1226:Y *1227:A2 18.42 
*END

*D_NET *200 0.000835565
*CONN
*I *1229:B1 I *D sky130_fd_sc_hd__a211o_1
*I *1227:Y O *D sky130_fd_sc_hd__a21oi_1
*CAP
1 *1229:B1 0.000270348
2 *1227:Y 0.000270348
3 *1229:B1 *1229:A1 4.50808e-05
4 *1229:B1 *1229:C1 0.000110704
5 *1229:B1 *1601:A 4.60123e-05
6 *1227:B1 *1229:B1 9.30717e-05
*RES
1 *1227:Y *1229:B1 11.985 
*END

*D_NET *201 0.000982537
*CONN
*I *1229:C1 I *D sky130_fd_sc_hd__a211o_1
*I *1228:X O *D sky130_fd_sc_hd__a22o_1
*CAP
1 *1229:C1 0.000226582
2 *1228:X 0.000226582
3 *1229:C1 *1229:A1 8.65961e-05
4 *1229:C1 *1556:A 9.84609e-06
5 *1229:C1 *455:78 0.000159589
6 *1227:B1 *1229:C1 7.63204e-05
7 *1228:A2 *1229:C1 8.6317e-05
8 *1229:B1 *1229:C1 0.000110704
*RES
1 *1228:X *1229:C1 12.555 
*END

*D_NET *202 0.00256012
*CONN
*I *1230:B2 I *D sky130_fd_sc_hd__o22a_1
*I *1229:X O *D sky130_fd_sc_hd__a211o_1
*CAP
1 *1230:B2 0.000606489
2 *1229:X 0.000606489
3 *1230:B2 *1230:A1 1.10085e-05
4 *1230:B2 *1298:A0 7.03219e-05
5 *1230:B2 *1298:A1 0.000227078
6 *1230:B2 *1543:A 0.000174146
7 *1230:B2 *425:55 0
8 *1227:A2 *1230:B2 9.16315e-05
9 *1230:B1 *1230:B2 0.000192509
10 *1277:A *1230:B2 0.000464321
11 *1484:D *1230:B2 9.47454e-05
12 *158:135 *1230:B2 2.1376e-05
*RES
1 *1229:X *1230:B2 22.425 
*END

*D_NET *203 0.00388172
*CONN
*I *1231:A1 I *D sky130_fd_sc_hd__mux2_1
*I *1230:X O *D sky130_fd_sc_hd__o22a_1
*CAP
1 *1231:A1 0.00144886
2 *1230:X 0.00144886
3 *1231:A1 *1298:S 1.54111e-05
4 *1231:A1 *1299:A 0.000217066
5 *1231:A1 *1355:S 1.59888e-05
6 *1231:A1 *1391:S 0
7 *1231:A1 *333:16 0.00019313
8 *1231:A1 *455:10 0
9 *1231:A1 *455:33 0
10 *1230:B1 *1231:A1 0.000113404
11 *1508:D *1231:A1 0.0001243
12 *163:45 *1231:A1 0.000304696
*RES
1 *1230:X *1231:A1 28.845 
*END

*D_NET *204 0.00109521
*CONN
*I *1232:A I *D sky130_fd_sc_hd__clkbuf_1
*I *1231:X O *D sky130_fd_sc_hd__mux2_1
*CAP
1 *1232:A 0.000327919
2 *1231:X 0.000327919
3 *1232:A *1313:A 8.49205e-05
4 *1232:A *1640:A 6.77417e-05
5 *1232:A *254:82 0.000163204
6 *1232:A *420:10 8.75013e-06
7 *1468:RESET_B *1232:A 0.000114757
8 *163:45 *1232:A 0
*RES
1 *1231:X *1232:A 13.395 
*END

*D_NET *205 0.00255863
*CONN
*I *1234:B1 I *D sky130_fd_sc_hd__a21o_1
*I *1233:X O *D sky130_fd_sc_hd__a22o_1
*CAP
1 *1234:B1 0.000484512
2 *1233:X 0.000484512
3 *1234:B1 *1234:A1 2.56353e-05
4 *1234:B1 *1296:A0 0.000306512
5 *1234:B1 *1297:A 4.99619e-05
6 *1234:B1 *219:20 2.23542e-05
7 *1234:B1 *245:20 0.00023301
8 *1234:B1 *245:33 0.000120655
9 *1234:B1 *330:38 6.05513e-05
10 *1234:B1 *364:8 1.37328e-05
11 *1234:B1 *444:46 0.000155997
12 *1234:B1 *444:66 0.000356466
13 *1234:A2 *1234:B1 0.000236648
14 *1483:D *1234:B1 0
15 *165:171 *1234:B1 8.08153e-06
*RES
1 *1233:X *1234:B1 19.62 
*END

*D_NET *206 0.0019371
*CONN
*I *1239:B1 I *D sky130_fd_sc_hd__o22a_1
*I *1234:X O *D sky130_fd_sc_hd__a21o_1
*CAP
1 *1239:B1 0.000434113
2 *1234:X 0.000434113
3 *1239:B1 *1239:A1 8.82557e-05
4 *1239:B1 *1335:A0 0.000277655
5 *1239:B1 *1590:A 4.99619e-05
6 *1239:B1 *219:20 0.000276805
7 *1239:B1 *258:56 0.000141472
8 *1239:B1 *335:27 0.0001249
9 *1239:B1 *444:66 0.000109822
*RES
1 *1234:X *1239:B1 17.91 
*END

*D_NET *207 0.00207524
*CONN
*I *1236:A2 I *D sky130_fd_sc_hd__a21oi_1
*I *1235:Y O *D sky130_fd_sc_hd__inv_2
*CAP
1 *1236:A2 0.000404568
2 *1235:Y 0.000404568
3 *1236:A2 *1371:A1 0.000159566
4 *1236:A2 *1408:A0 0.000197243
5 *1236:A2 *1426:A0 0.000274659
6 *1236:A2 *1426:A1 0.000119762
7 *1236:A2 *1603:A 8.64599e-05
8 *1236:A2 *299:14 0.000128537
9 *1236:A2 *299:22 0
10 *1236:A2 *309:10 0.000117832
11 *1236:A2 *309:23 2.14129e-05
12 *1236:A2 *444:83 0
13 *160:70 *1236:A2 0.000160635
*RES
1 *1235:Y *1236:A2 17.685 
*END

*D_NET *208 0.00118312
*CONN
*I *1238:B1 I *D sky130_fd_sc_hd__a211o_1
*I *1236:Y O *D sky130_fd_sc_hd__a21oi_1
*CAP
1 *1238:B1 0.000185552
2 *1236:Y 0.000185552
3 *1238:B1 *1238:A1 0.000160665
4 *1238:B1 *1239:B2 4.66108e-05
5 *1238:B1 *1651:A 0.000382031
6 *1238:B1 *425:28 2.49909e-05
7 *1236:B1 *1238:B1 5.74987e-05
8 *160:70 *1238:B1 9.53428e-06
9 *160:97 *1238:B1 5.062e-06
10 *172:26 *1238:B1 0.000125618
*RES
1 *1236:Y *1238:B1 13.155 
*END

*D_NET *209 0.0019782
*CONN
*I *1238:C1 I *D sky130_fd_sc_hd__a211o_1
*I *1237:X O *D sky130_fd_sc_hd__a22o_1
*CAP
1 *1238:C1 0.000334746
2 *1237:X 0.000334746
3 *1238:C1 *1426:A0 7.4027e-05
4 *1238:C1 *1651:A 0.000831563
5 *1238:C1 *328:10 8.53113e-06
6 *166:10 *1238:C1 0.000262995
7 *172:26 *1238:C1 8.35118e-05
8 *176:34 *1238:C1 4.80824e-05
*RES
1 *1237:X *1238:C1 17.79 
*END

*D_NET *210 0.00146907
*CONN
*I *1239:B2 I *D sky130_fd_sc_hd__o22a_1
*I *1238:X O *D sky130_fd_sc_hd__a211o_1
*CAP
1 *1239:B2 0.000481767
2 *1238:X 0.000481767
3 *1239:B2 *1523:CLK 0
4 *1239:B2 *309:23 0.000117832
5 *1239:B2 *328:10 8.49205e-05
6 *1239:B2 *425:28 0.000169576
7 *1238:B1 *1239:B2 4.66108e-05
8 *172:53 *1239:B2 8.65961e-05
*RES
1 *1238:X *1239:B2 15.255 
*END

*D_NET *211 0.00275141
*CONN
*I *1240:A1 I *D sky130_fd_sc_hd__mux2_1
*I *1239:X O *D sky130_fd_sc_hd__o22a_1
*CAP
1 *1240:A1 0.000951698
2 *1239:X 0.000951698
3 *1240:A1 *1240:A0 8.8266e-05
4 *1240:A1 *1242:A1 0
5 *1240:A1 *1242:B2 1.88271e-05
6 *1240:A1 *1387:A0 0.000187874
7 *1240:A1 *1490:CLK 0.000135147
8 *1240:A1 *1577:A 0
9 *1240:A1 *288:100 0.000134123
10 *1240:A1 *299:22 0
11 *1240:A1 *299:80 0
12 *1240:A1 *309:23 4.03077e-06
13 *1240:A1 *309:89 0
14 *1240:A1 *335:27 4.99619e-05
15 *1240:A1 *335:40 0.000144311
16 *1240:A1 *363:14 9.12857e-06
17 *1467:RESET_B *1240:A1 4.55864e-06
18 *158:135 *1240:A1 0
19 *163:86 *1240:A1 7.17811e-05
*RES
1 *1239:X *1240:A1 23.28 
*END

*D_NET *212 0.000487919
*CONN
*I *1241:A I *D sky130_fd_sc_hd__clkbuf_1
*I *1240:X O *D sky130_fd_sc_hd__mux2_1
*CAP
1 *1241:A 0.000141636
2 *1240:X 0.000141636
3 *1241:A *1257:B2 1.38171e-05
4 *1241:A *1467:CLK 4.21008e-05
5 *1241:A *1521:CLK 2.30292e-05
6 *1241:A *254:82 5.062e-06
7 *1241:A *299:46 4.66108e-05
8 *1521:D *1241:A 7.4027e-05
*RES
1 *1240:X *1241:A 9.72 
*END

*D_NET *213 0.000403569
*CONN
*I *1243:B1 I *D sky130_fd_sc_hd__a21o_1
*I *1242:X O *D sky130_fd_sc_hd__a22o_1
*CAP
1 *1243:B1 0.000114229
2 *1242:X 0.000114229
3 *1243:B1 *1545:A 5.03953e-05
4 *1243:B1 *438:96 4.77769e-05
5 *1242:A2 *1243:B1 1.91597e-05
6 *1248:A2 *1243:B1 4.90457e-05
7 *167:84 *1243:B1 8.73389e-06
*RES
1 *1242:X *1243:B1 8.955 
*END

*D_NET *214 0.000496018
*CONN
*I *1248:B1 I *D sky130_fd_sc_hd__o22a_1
*I *1243:X O *D sky130_fd_sc_hd__a21o_1
*CAP
1 *1248:B1 0.000121249
2 *1243:X 0.000121249
3 *1248:B1 *1334:A 0
4 *1248:B1 *278:61 0.000138551
5 *1248:A2 *1248:B1 2.67022e-05
6 *167:65 *1248:B1 8.8266e-05
*RES
1 *1243:X *1248:B1 9.63 
*END

*D_NET *215 0.000329248
*CONN
*I *1245:A2 I *D sky130_fd_sc_hd__a21oi_1
*I *1244:Y O *D sky130_fd_sc_hd__inv_2
*CAP
1 *1245:A2 0.00011315
2 *1244:Y 0.00011315
3 *1245:A2 *299:80 0
4 *1245:A2 *319:84 0
5 *1245:A1 *1245:A2 6.84448e-05
6 *1245:B1 *1245:A2 3.45045e-05
*RES
1 *1244:Y *1245:A2 9.24 
*END

*D_NET *216 0.00162474
*CONN
*I *1247:B1 I *D sky130_fd_sc_hd__a211o_1
*I *1245:Y O *D sky130_fd_sc_hd__a21oi_1
*CAP
1 *1247:B1 0.000625195
2 *1245:Y 0.000625195
3 *1247:B1 *1247:C1 1.4161e-05
4 *1247:B1 *1425:A 6.12481e-05
5 *1247:B1 *1596:A 0.000198344
6 *1247:B1 *299:80 7.45675e-05
7 *1247:B1 *299:97 2.11084e-05
8 *1245:B1 *1247:B1 4.9253e-06
*RES
1 *1245:Y *1247:B1 12.185 
*END

*D_NET *217 0.00225483
*CONN
*I *1247:C1 I *D sky130_fd_sc_hd__a211o_1
*I *1246:X O *D sky130_fd_sc_hd__a22o_1
*CAP
1 *1247:C1 0.0004834
2 *1246:X 0.0004834
3 *1247:C1 *1369:A0 0.000240857
4 *1247:C1 *1425:A 3.67993e-05
5 *1247:C1 *433:14 0.000178234
6 *1247:C1 *433:16 9.05535e-05
7 *1247:C1 *433:18 0.000553737
8 *1247:C1 *433:20 0.000173686
9 *1247:B1 *1247:C1 1.4161e-05
10 *1514:D *1247:C1 0
11 *1522:D *1247:C1 0
*RES
1 *1246:X *1247:C1 18.9225 
*END

*D_NET *218 0.0010675
*CONN
*I *1248:B2 I *D sky130_fd_sc_hd__o22a_1
*I *1247:X O *D sky130_fd_sc_hd__a211o_1
*CAP
1 *1248:B2 0.000285023
2 *1247:X 0.000285023
3 *1248:B2 *1248:A1 9.77597e-05
4 *1248:B2 *1545:A 0.000112123
5 *1248:B2 *1651:A 0.000240476
6 *1248:B2 *258:85 4.70919e-05
7 *1248:B2 *278:61 0
*RES
1 *1247:X *1248:B2 12.555 
*END

*D_NET *219 0.00913132
*CONN
*I *1249:A1 I *D sky130_fd_sc_hd__mux2_1
*I *1248:X O *D sky130_fd_sc_hd__o22a_1
*CAP
1 *1249:A1 0.000152091
2 *1248:X 0.00284364
3 *219:20 0.00299573
4 *1249:A1 *1250:A 0
5 *219:20 *1234:A1 6.62088e-05
6 *219:20 *1257:B2 0
7 *219:20 *1311:A 1.41165e-05
8 *219:20 *1335:A0 1.61831e-05
9 *219:20 *1351:A0 2.54522e-05
10 *219:20 *1351:S 0.000385333
11 *219:20 *1390:A 2.11084e-05
12 *219:20 *1457:CLK 0.000139478
13 *219:20 *258:40 1.7386e-05
14 *219:20 *258:56 0.000292059
15 *219:20 *288:68 9.2741e-05
16 *219:20 *288:76 5.30673e-05
17 *219:20 *299:22 0.00103846
18 *219:20 *396:8 0.000275226
19 *219:20 *438:75 6.82201e-05
20 *219:20 *444:31 2.96426e-05
21 *219:20 *444:46 4.01778e-05
22 *219:20 *444:66 1.44045e-05
23 *219:20 *444:81 1.68507e-05
24 *1230:A2 *219:20 0
25 *1234:A2 *219:20 6.52096e-05
26 *1234:B1 *219:20 2.23542e-05
27 *1239:B1 *219:20 0.000276805
28 *1249:S *1249:A1 9.53428e-06
29 *1506:D *219:20 4.88854e-05
30 *1507:D *219:20 1.24292e-05
31 *163:14 *1249:A1 4.58257e-05
32 *163:14 *219:20 2.75145e-05
33 *163:24 *1249:A1 2.5177e-05
*RES
1 *1248:X *219:20 48.725 
2 *219:20 *1249:A1 3.7 
*END

*D_NET *220 0.000222357
*CONN
*I *1250:A I *D sky130_fd_sc_hd__clkbuf_1
*I *1249:X O *D sky130_fd_sc_hd__mux2_1
*CAP
1 *1250:A 0.000111178
2 *1249:X 0.000111178
3 *1249:A1 *1250:A 0
4 *163:24 *1250:A 0
*RES
1 *1249:X *1250:A 4.955 
*END

*D_NET *221 0.000889058
*CONN
*I *1252:B1 I *D sky130_fd_sc_hd__a21o_1
*I *1251:X O *D sky130_fd_sc_hd__a22o_1
*CAP
1 *1252:B1 0.000261541
2 *1251:X 0.000261541
3 *1252:B1 *1284:A 3.89366e-05
4 *1252:B1 *422:66 0.000288102
5 *1252:B1 *438:23 3.89366e-05
*RES
1 *1251:X *1252:B1 12 
*END

*D_NET *222 0.0021905
*CONN
*I *1257:B1 I *D sky130_fd_sc_hd__o22a_1
*I *1252:X O *D sky130_fd_sc_hd__a21o_1
*CAP
1 *1257:B1 0.000469564
2 *1252:X 0.000469564
3 *1257:B1 *1257:A1 2.9972e-05
4 *1257:B1 *1292:S 0.000120655
5 *1257:B1 *1331:A0 7.68414e-06
6 *1257:B1 *1331:A1 0.000129297
7 *1257:B1 *258:56 0.000198339
8 *1257:B1 *422:54 2.17931e-05
9 *1257:B1 *422:66 0.000277223
10 *1257:B1 *437:122 0.000343701
11 *1257:A2 *1257:B1 0.000122702
*RES
1 *1252:X *1257:B1 13.925 
*END

*D_NET *223 0.00137701
*CONN
*I *1254:A2 I *D sky130_fd_sc_hd__a21oi_1
*I *1253:Y O *D sky130_fd_sc_hd__inv_2
*CAP
1 *1254:A2 0.000368087
2 *1253:Y 0.000368087
3 *1254:A2 *1253:A 1.15087e-05
4 *1254:A2 *334:32 5.44686e-05
5 *1254:A2 *373:8 8.65905e-05
6 *1254:A2 *422:30 0.000106685
7 *1227:A2 *1254:A2 0.000279587
8 *1524:D *1254:A2 9.03376e-05
9 *165:171 *1254:A2 1.16578e-05
*RES
1 *1253:Y *1254:A2 11.015 
*END

*D_NET *224 0.00191126
*CONN
*I *1256:B1 I *D sky130_fd_sc_hd__a211o_1
*I *1254:Y O *D sky130_fd_sc_hd__a21oi_1
*CAP
1 *1256:B1 0.000539945
2 *1254:Y 0.000539945
3 *1256:B1 *1257:B2 0
4 *1256:B1 *422:30 1.14169e-05
5 *1256:B1 *422:92 0.000234349
6 *1256:B1 *422:105 0.000560614
7 *172:110 *1256:B1 2.49909e-05
*RES
1 *1254:Y *1256:B1 15.255 
*END

*D_NET *225 0.00129806
*CONN
*I *1256:C1 I *D sky130_fd_sc_hd__a211o_1
*I *1255:X O *D sky130_fd_sc_hd__a22o_1
*CAP
1 *1256:C1 0.000384364
2 *1255:X 0.000384364
3 *1256:C1 *1367:A0 0
4 *1256:C1 *278:61 0.000141256
5 *172:110 *1256:C1 0.000329418
6 *175:86 *1256:C1 5.86575e-05
*RES
1 *1255:X *1256:C1 15.66 
*END

*D_NET *226 0.00249609
*CONN
*I *1257:B2 I *D sky130_fd_sc_hd__o22a_1
*I *1256:X O *D sky130_fd_sc_hd__a211o_1
*CAP
1 *1257:B2 0.000972048
2 *1256:X 0.000972048
3 *1257:B2 *1257:A1 0.000175088
4 *1257:B2 *1352:A 2.67022e-05
5 *1257:B2 *1422:A0 0
6 *1257:B2 *1428:S 0
7 *1257:B2 *1549:A 0.000112595
8 *1257:B2 *258:60 0
9 *1257:B2 *258:85 0
10 *1257:B2 *299:22 0
11 *1257:B2 *299:46 4.01535e-05
12 *1257:B2 *336:12 0
13 *1257:B2 *378:14 0
14 *1257:B2 *438:75 0
15 *1230:A2 *1257:B2 0.000149411
16 *1241:A *1257:B2 1.38171e-05
17 *1256:B1 *1257:B2 0
18 *1521:D *1257:B2 3.4222e-05
19 *167:65 *1257:B2 0
20 *219:20 *1257:B2 0
*RES
1 *1256:X *1257:B2 23.76 
*END

*D_NET *227 0.00703283
*CONN
*I *1258:A1 I *D sky130_fd_sc_hd__mux2_1
*I *1257:X O *D sky130_fd_sc_hd__o22a_1
*CAP
1 *1258:A1 0.00217508
2 *1257:X 0.00217508
3 *1258:A1 *1215:A1 6.7446e-05
4 *1258:A1 *1215:B1 0.00013383
5 *1258:A1 *1301:A 2.86265e-06
6 *1258:A1 *1394:A 0.000286109
7 *1258:A1 *1465:CLK 7.46328e-06
8 *1258:A1 *254:113 0
9 *1258:A1 *335:8 8.65961e-05
10 *1258:A1 *466:18 1.72489e-05
11 *1258:A1 *466:35 0
12 *1215:A2 *1258:A1 9.27255e-06
13 *1216:B1 *1258:A1 0.000680425
14 *1257:A2 *1258:A1 4.82863e-05
15 *1465:D *1258:A1 8.57967e-05
16 *1509:D *1258:A1 0.000383419
17 *166:25 *1258:A1 0.000873914
*RES
1 *1257:X *1258:A1 42.96 
*END

*D_NET *228 0.000912584
*CONN
*I *1259:A I *D sky130_fd_sc_hd__clkbuf_1
*I *1258:X O *D sky130_fd_sc_hd__mux2_1
*CAP
1 *1259:A 0.000346885
2 *1258:X 0.000346885
3 *1259:A *1570:A 2.3526e-05
4 *1259:A *466:35 0.000100902
5 *1216:B1 *1259:A 9.09788e-06
6 *1258:S *1259:A 8.52883e-05
*RES
1 *1258:X *1259:A 11.565 
*END

*D_NET *229 0.00279841
*CONN
*I *1261:B1 I *D sky130_fd_sc_hd__a21o_1
*I *1260:X O *D sky130_fd_sc_hd__a22o_1
*CAP
1 *1261:B1 0.000446996
2 *1260:X 0.000446996
3 *1261:B1 *1260:B2 5.4753e-05
4 *1261:B1 *1261:A1 0.000266436
5 *1261:B1 *1290:S 9.12671e-06
6 *1261:B1 *1300:S 0.000108443
7 *1261:B1 *245:102 0.000301198
8 *1261:B1 *309:54 4.24908e-05
9 *1261:B1 *393:14 7.23602e-05
10 *1215:A2 *1261:B1 0.000119873
11 *1261:A2 *1261:B1 3.68999e-05
12 *1454:D *1261:B1 0.00022538
13 *158:158 *1261:B1 0.000268739
14 *160:150 *1261:B1 0.000125587
15 *166:120 *1261:B1 0.000273133
*RES
1 *1260:X *1261:B1 21.15 
*END

*D_NET *230 0.000710737
*CONN
*I *1266:B1 I *D sky130_fd_sc_hd__o22a_1
*I *1261:X O *D sky130_fd_sc_hd__a21o_1
*CAP
1 *1266:B1 0.000123883
2 *1261:X 0.000123883
3 *1266:B1 *1266:A1 0.000158066
4 *1266:B1 *1291:A 0.000114492
5 *1266:B1 *299:109 6.02123e-05
6 *158:158 *1266:B1 4.82863e-05
7 *163:86 *1266:B1 8.19139e-05
*RES
1 *1261:X *1266:B1 10.515 
*END

*D_NET *231 0.000824898
*CONN
*I *1263:A2 I *D sky130_fd_sc_hd__a21oi_1
*I *1262:Y O *D sky130_fd_sc_hd__inv_2
*CAP
1 *1263:A2 0.000211961
2 *1262:Y 0.000211961
3 *1263:A2 *1262:A 7.4027e-05
4 *1263:A2 *1265:B1 0
5 *1263:A2 *1403:A 6.64979e-05
6 *1263:A2 *1464:CLK 0
7 *1263:A2 *1512:CLK 9.47454e-05
8 *1263:A2 *336:144 7.91921e-05
9 *1263:A2 *377:10 0
10 *1263:A2 *401:36 5.89992e-05
11 *160:150 *1263:A2 2.75145e-05
*RES
1 *1262:Y *1263:A2 12.465 
*END

*D_NET *232 0.00104493
*CONN
*I *1265:B1 I *D sky130_fd_sc_hd__a211o_1
*I *1263:Y O *D sky130_fd_sc_hd__a21oi_1
*CAP
1 *1265:B1 0.000300966
2 *1263:Y 0.000300966
3 *1265:B1 *1265:A1 9.53428e-06
4 *1265:B1 *1265:C1 3.54536e-05
5 *1265:B1 *1420:A0 0
6 *1265:B1 *1421:A 8.66976e-06
7 *1265:B1 *336:144 0.000127485
8 *1265:B1 *377:10 0
9 *1263:A2 *1265:B1 0
10 *1263:B1 *1265:B1 8.65961e-05
11 *1265:A2 *1265:B1 4.22928e-05
12 *160:154 *1265:B1 0.000132968
*RES
1 *1263:Y *1265:B1 14.19 
*END

*D_NET *233 0.000678974
*CONN
*I *1265:C1 I *D sky130_fd_sc_hd__a211o_1
*I *1264:X O *D sky130_fd_sc_hd__a22o_1
*CAP
1 *1265:C1 0.000300566
2 *1264:X 0.000300566
3 *1265:C1 *1265:A1 2.13852e-05
4 *1265:A2 *1265:C1 2.10034e-05
5 *1265:B1 *1265:C1 3.54536e-05
6 *175:74 *1265:C1 0
*RES
1 *1264:X *1265:C1 11.865 
*END

*D_NET *234 0.00129003
*CONN
*I *1266:B2 I *D sky130_fd_sc_hd__o22a_1
*I *1265:X O *D sky130_fd_sc_hd__a211o_1
*CAP
1 *1266:B2 0.000444611
2 *1265:X 0.000444611
3 *1266:B2 *1265:A1 5.07419e-05
4 *1266:B2 *1403:A 6.28765e-05
5 *1266:B2 *1420:A0 0
6 *1266:B2 *1576:A 6.05513e-05
7 *1266:B2 *309:54 5.99519e-05
8 *1266:B2 *377:10 0
9 *1266:B2 *401:36 0
10 *1266:B2 *401:44 0
11 *1263:B1 *1266:B2 0
12 *160:150 *1266:B2 0.000166685
13 *165:90 *1266:B2 0
*RES
1 *1265:X *1266:B2 15.69 
*END

*D_NET *235 0.00164962
*CONN
*I *1267:A1 I *D sky130_fd_sc_hd__mux2_1
*I *1266:X O *D sky130_fd_sc_hd__o22a_1
*CAP
1 *1267:A1 0.000453669
2 *1266:X 0.000453669
3 *1267:A1 *1266:A1 2.33708e-05
4 *1267:A1 *1267:A0 0.000112743
5 *1267:S *1267:A1 0.000257069
6 *163:86 *1267:A1 0.000349094
*RES
1 *1266:X *1267:A1 14.205 
*END

*D_NET *236 0.00073893
*CONN
*I *1268:A I *D sky130_fd_sc_hd__clkbuf_1
*I *1267:X O *D sky130_fd_sc_hd__mux2_1
*CAP
1 *1268:A 0.000261266
2 *1267:X 0.000261266
3 *1268:A *431:16 0
4 *1464:D *1268:A 0.000162427
5 *1464:RESET_B *1268:A 5.39718e-05
*RES
1 *1267:X *1268:A 12.66 
*END

*D_NET *237 8.4422e-05
*CONN
*I *1274:A I *D sky130_fd_sc_hd__dlymetal6s2s_1
*I *1273:X O *D sky130_fd_sc_hd__or2_1
*CAP
1 *1274:A 1.72301e-05
2 *1273:X 1.72301e-05
3 *1274:A *1652:A 4.99619e-05
*RES
1 *1273:X *1274:A 3.65 
*END

*D_NET *238 0.0080631
*CONN
*I *1281:A2 I *D sky130_fd_sc_hd__o21a_1
*I *1276:A I *D sky130_fd_sc_hd__inv_2
*I *1286:B I *D sky130_fd_sc_hd__and3b_1
*I *1275:Y O *D sky130_fd_sc_hd__xnor2_2
*CAP
1 *1281:A2 0.000599524
2 *1276:A 0.000638314
3 *1286:B 0.000256435
4 *1275:Y 0.000297526
5 *238:16 0.00195528
6 *238:10 0.00195758
7 *1276:A *1286:C 0
8 *1276:A *1637:A 0
9 *1276:A *1648:A 0
10 *1281:A2 *1538:A 0
11 *1281:A2 *328:113 0
12 *1281:A2 *330:10 0
13 *1286:B *1286:A_N 5.90661e-05
14 *1286:B *1286:C 0
15 *1286:B *1287:A 8.53113e-06
16 *1286:B *1637:A 0
17 *238:10 *1538:A 0
18 *238:16 *1318:A 0.000639701
19 *238:16 *244:83 8.52883e-05
20 *1156:A *1281:A2 7.9642e-06
21 *1156:A *238:10 0.000136599
22 *1156:B *1281:A2 9.05299e-05
23 *1156:B *238:16 5.05437e-05
24 *1173:B1 *1281:A2 1.13002e-05
25 *1200:A_N *1281:A2 2.9393e-05
26 *1275:B *238:10 2.75229e-05
27 *1280:B *1281:A2 4.33323e-05
28 *1474:D *1276:A 3.39052e-05
29 *1474:RESET_B *238:16 2.86975e-05
30 *139:29 *1281:A2 0.000116165
31 *139:54 *1281:A2 3.57768e-05
32 *142:40 *1281:A2 0
33 *154:10 *238:10 0
34 *157:86 *1281:A2 1.54568e-05
35 *160:45 *1281:A2 0.000118081
36 *163:197 *238:16 0.000392372
37 *165:38 *1281:A2 0.000320581
38 *167:136 *238:10 0.000107634
*RES
1 *1275:Y *238:10 8.1 
2 *238:10 *238:16 23.425 
3 *238:16 *1286:B 7.86 
4 *238:16 *1276:A 13.905 
5 *238:10 *1281:A2 14.28 
*END

*D_NET *239 0.000305688
*CONN
*I *1278:B I *D sky130_fd_sc_hd__or2_1
*I *1277:X O *D sky130_fd_sc_hd__and2_1
*CAP
1 *1278:B 7.72911e-05
2 *1277:X 7.72911e-05
3 *1278:B *425:55 4.82919e-05
4 *1278:B *425:71 2.87867e-05
5 *1278:B *437:122 7.4027e-05
*RES
1 *1277:X *1278:B 8.88 
*END

*D_NET *240 0.000276905
*CONN
*I *1279:A I *D sky130_fd_sc_hd__clkbuf_1
*I *1278:X O *D sky130_fd_sc_hd__or2_1
*CAP
1 *1279:A 0.000138452
2 *1278:X 0.000138452
*RES
1 *1278:X *1279:A 5.03 
*END

*D_NET *241 0.00222738
*CONN
*I *1281:A1 I *D sky130_fd_sc_hd__o21a_1
*I *1285:B1 I *D sky130_fd_sc_hd__a21oi_2
*I *1280:Y O *D sky130_fd_sc_hd__nor3_1
*CAP
1 *1281:A1 0.00028084
2 *1285:B1 3.80349e-05
3 *1280:Y 0.000165579
4 *241:10 0.000484454
5 *1281:A1 *1283:C 0.000341622
6 *1281:A1 *330:50 7.45558e-05
7 *1281:A1 *430:14 0.00010323
8 *1281:A1 *431:16 9.5799e-06
9 *241:10 *1283:C 3.98434e-05
10 *241:10 *1535:CLK 7.05395e-05
11 *241:10 *435:14 9.00945e-05
12 *1281:B1 *1281:A1 7.44125e-05
13 *142:40 *1281:A1 1.65955e-05
14 *142:40 *1285:B1 5.83121e-06
15 *142:40 *241:10 0.000111163
16 *142:55 *1281:A1 0
17 *142:61 *1281:A1 4.66108e-05
18 *160:45 *1281:A1 0.000190259
19 *176:24 *1285:B1 8.41384e-05
*RES
1 *1280:Y *241:10 6.375 
2 *241:10 *1285:B1 4.395 
3 *241:10 *1281:A1 10.77 
*END

*D_NET *242 0.00497609
*CONN
*I *1284:A I *D sky130_fd_sc_hd__clkbuf_1
*I *1283:X O *D sky130_fd_sc_hd__and3b_1
*CAP
1 *1284:A 0.00181884
2 *1283:X 0.00181884
3 *1284:A *1226:A 0
4 *1284:A *1251:A1 0.000156371
5 *1284:A *1253:A 0
6 *1284:A *1283:B 4.77807e-05
7 *1284:A *1391:A1 4.05358e-05
8 *1284:A *1391:S 0.000148185
9 *1284:A *1405:A 0
10 *1284:A *1410:A1 0.000271978
11 *1284:A *1598:A 0
12 *1284:A *1605:A 0
13 *1284:A *288:68 0.000125494
14 *1284:A *288:76 0.000155131
15 *1284:A *333:10 0
16 *1284:A *362:10 0.000114492
17 *1284:A *365:16 0.000136587
18 *1284:A *422:14 0
19 *1284:A *437:48 4.89395e-05
20 *1284:A *438:23 0
21 *1284:A *438:42 0
22 *1284:A *444:31 0
23 *1284:A *455:33 0
24 *1252:B1 *1284:A 3.89366e-05
25 *1455:D *1284:A 5.39718e-05
26 *1516:D *1284:A 0
*RES
1 *1283:X *1284:A 42.735 
*END

*D_NET *243 0.000399561
*CONN
*I *1287:A I *D sky130_fd_sc_hd__clkbuf_1
*I *1286:X O *D sky130_fd_sc_hd__and3b_1
*CAP
1 *1287:A 0.000131518
2 *1286:X 0.000131518
3 *1287:A *1286:A_N 7.4027e-05
4 *1287:A *1599:A 5.39673e-05
5 *1286:B *1287:A 8.53113e-06
*RES
1 *1286:X *1287:A 9.735 
*END

*D_NET *244 0.0113585
*CONN
*I *1321:A I *D sky130_fd_sc_hd__inv_2
*I *1322:A I *D sky130_fd_sc_hd__inv_2
*I *1307:A I *D sky130_fd_sc_hd__clkbuf_8
*I *1318:A I *D sky130_fd_sc_hd__inv_2
*I *1319:A I *D sky130_fd_sc_hd__inv_2
*I *1320:A I *D sky130_fd_sc_hd__inv_2
*I *1324:A I *D sky130_fd_sc_hd__inv_2
*I *1289:A I *D sky130_fd_sc_hd__nor2_4
*I *1381:B I *D sky130_fd_sc_hd__or3b_1
*I *1323:A I *D sky130_fd_sc_hd__inv_2
*I *1288:X O *D sky130_fd_sc_hd__buf_4
*CAP
1 *1321:A 8.34046e-05
2 *1322:A 0.000335961
3 *1307:A 0
4 *1318:A 0.000421527
5 *1319:A 0
6 *1320:A 8.65845e-05
7 *1324:A 0.000394441
8 *1289:A 0.000130274
9 *1381:B 0
10 *1323:A 0.000225716
11 *1288:X 0
12 *244:112 0.000455371
13 *244:83 0.00063585
14 *244:66 0.000504019
15 *244:51 0.000692826
16 *244:47 0.00087261
17 *244:30 0.000972264
18 *244:21 0.000237496
19 *244:8 0.000599647
20 *244:4 0.000237095
21 *1318:A *268:26 0.000103192
22 *1318:A *499:19 0.000185405
23 *1320:A *1286:A_N 0.000160314
24 *1321:A *1306:A 3.13354e-05
25 *1321:A *288:38 0.000129998
26 *1322:A *1166:B 0
27 *1322:A *1167:A 7.64694e-06
28 *1322:A *1169:A1 0
29 *1322:A *1288:A 2.97802e-05
30 *1322:A *515:14 3.48914e-05
31 *1323:A *1645:A 0.000241483
32 *1324:A *444:12 0.000247785
33 *244:8 *288:38 0.000416409
34 *244:8 *516:6 5.83121e-06
35 *244:21 *288:38 0
36 *244:21 *516:29 5.21714e-05
37 *244:21 *516:40 2.46007e-05
38 *244:47 *1158:B 0.000122194
39 *244:51 *1158:B 0.000197826
40 *244:66 *444:12 0.000219389
41 *244:83 *444:12 6.3685e-05
42 *244:112 *288:38 4.2801e-05
43 *1159:A1 *1322:A 0
44 *1163:A *244:47 0.000133329
45 *1163:B *244:21 4.43871e-06
46 *1163:B *244:30 5.92191e-05
47 *1163:B *244:47 6.23626e-06
48 *1167:B *1322:A 4.14922e-05
49 *1168:A *244:8 4.60584e-05
50 *1168:B *1322:A 0
51 *1168:B *244:8 0.000203178
52 *1170:A *1321:A 4.94457e-05
53 *1170:A *1322:A 0.000188703
54 *1170:B *1321:A 4.59624e-05
55 *1183:B1_N *244:83 0.000210846
56 *1289:B *1289:A 0.000163204
57 *1475:RESET_B *244:66 2.92612e-05
58 *1476:D *1321:A 1.52352e-05
59 *1477:D *244:21 0
60 *1477:RESET_B *1322:A 2.55704e-05
61 *1478:RESET_B *1323:A 0
62 *1478:RESET_B *244:21 0
63 *143:6 *244:47 5.15662e-05
64 *144:46 *1289:A 6.90876e-05
65 *163:197 *1318:A 8.88799e-05
66 *238:16 *1318:A 0.000639701
67 *238:16 *244:83 8.52883e-05
*RES
1 *1288:X *244:4 1.6 
2 *244:4 *244:8 8.315 
3 *244:8 *1323:A 7.92 
4 *244:8 *244:21 2.91 
5 *244:21 *1381:B 3.6 
6 *244:21 *244:30 1.38 
7 *244:30 *1289:A 6.48 
8 *244:30 *244:47 13.655 
9 *244:47 *244:51 3.83 
10 *244:51 *1324:A 10.905 
11 *244:51 *244:66 4.695 
12 *244:66 *1320:A 5.445 
13 *244:66 *244:83 6.725 
14 *244:83 *1319:A 1.6 
15 *244:83 *1318:A 15.215 
16 *244:47 *1307:A 1.6 
17 *244:4 *244:112 0.795 
18 *244:112 *1322:A 12.3725 
19 *244:112 *1321:A 4.135 
*END

*D_NET *245 0.0248861
*CONN
*I *1302:S I *D sky130_fd_sc_hd__mux2_1
*I *1304:S I *D sky130_fd_sc_hd__mux2_1
*I *1300:S I *D sky130_fd_sc_hd__mux2_1
*I *1290:S I *D sky130_fd_sc_hd__mux2_1
*I *1294:S I *D sky130_fd_sc_hd__mux2_1
*I *1298:S I *D sky130_fd_sc_hd__mux2_1
*I *1292:S I *D sky130_fd_sc_hd__mux2_1
*I *1296:S I *D sky130_fd_sc_hd__mux2_1
*I *1289:Y O *D sky130_fd_sc_hd__nor2_4
*CAP
1 *1302:S 0.000981857
2 *1304:S 0
3 *1300:S 0.00027957
4 *1290:S 1.58117e-05
5 *1294:S 2.0132e-05
6 *1298:S 0.000201345
7 *1292:S 3.45092e-05
8 *1296:S 2.08101e-05
9 *1289:Y 0.000114964
10 *245:132 0.00212883
11 *245:102 0.000909353
12 *245:85 0.00181469
13 *245:46 0.00144955
14 *245:33 0.000381893
15 *245:20 0.00164789
16 *245:10 0.00260926
17 *1292:S *1331:A1 3.96653e-05
18 *1292:S *422:54 2.75229e-05
19 *1298:S *1543:A 0.000111293
20 *1298:S *333:91 8.35118e-05
21 *1298:S *333:98 2.39856e-05
22 *1300:S *1465:CLK 2.75145e-05
23 *1302:S *1207:A1 0.000339851
24 *1302:S *1302:A0 8.46717e-05
25 *1302:S *1303:A 3.06507e-05
26 *1302:S *1304:A0 9.47267e-06
27 *1302:S *1359:A0 0.000306867
28 *1302:S *1359:S 0.000268184
29 *1302:S *1360:A 0.000346381
30 *1302:S *1487:CLK 8.33066e-06
31 *1302:S *1591:A 0.000269931
32 *1302:S *331:36 0.00015356
33 *1302:S *477:26 0.000125259
34 *245:20 *1153:B 0
35 *245:20 *1177:A 0
36 *245:20 *1200:C 8.86398e-05
37 *245:20 *1296:A1 0.000122337
38 *245:20 *1457:CLK 0
39 *245:20 *1538:A 0
40 *245:20 *330:10 0
41 *245:20 *330:38 2.05056e-05
42 *245:20 *444:46 8.49205e-05
43 *245:20 *444:66 1.52184e-05
44 *245:33 *328:113 0.000130304
45 *245:33 *330:38 6.38806e-05
46 *245:33 *425:55 0.00037798
47 *245:33 *437:89 0.000162338
48 *245:33 *437:122 5.16348e-05
49 *245:46 *425:55 0.000233441
50 *245:46 *437:122 0.000241972
51 *245:85 *1294:A0 7.27409e-05
52 *245:85 *1456:CLK 0.000186026
53 *245:85 *1506:CLK 0.000212405
54 *245:85 *1565:A 0.000146518
55 *245:85 *288:100 3.75953e-05
56 *245:85 *288:111 0.000633845
57 *245:85 *309:23 4.75977e-05
58 *245:85 *333:98 0.000120916
59 *245:85 *338:8 0.00016031
60 *245:85 *363:14 0.000139636
61 *245:85 *438:96 0.000102911
62 *245:102 *1260:A1 1.54665e-05
63 *245:102 *1260:B2 7.18795e-06
64 *245:102 *1294:A0 2.10841e-05
65 *245:102 *1551:A 0.00027287
66 *245:102 *288:111 0.0006285
67 *245:102 *438:96 0.000505421
68 *245:132 *1159:C1 0.00036052
69 *245:132 *1159:D1 1.54665e-05
70 *245:132 *1304:A0 6.93172e-05
71 *245:132 *1325:A_N 0.000121043
72 *245:132 *1397:A0 9.77048e-06
73 *245:132 *413:32 0.000529507
74 *245:132 *413:34 4.71087e-05
75 *245:132 *413:36 2.0187e-05
76 *1159:A2 *245:132 0.000412705
77 *1175:A2 *245:20 0
78 *1176:A *245:20 0
79 *1188:B *245:20 0.000124496
80 *1206:A2 *1302:S 4.22861e-05
81 *1207:A2 *1302:S 8.53011e-05
82 *1212:B1 *1302:S 9.51579e-05
83 *1213:A1 *1302:S 4.40028e-05
84 *1214:A *1302:S 3.64998e-06
85 *1215:A2 *245:102 3.52581e-05
86 *1216:B1 *1300:S 4.82863e-05
87 *1230:B1 *1298:S 2.87433e-05
88 *1231:A1 *1298:S 1.54111e-05
89 *1234:B1 *245:20 0.00023301
90 *1234:B1 *245:33 0.000120655
91 *1257:B1 *1292:S 0.000120655
92 *1261:B1 *1290:S 9.12671e-06
93 *1261:B1 *1300:S 0.000108443
94 *1261:B1 *245:102 0.000301198
95 *1459:D *245:102 8.41384e-05
96 *1506:D *245:85 4.82319e-06
97 *143:6 *245:20 0.000159179
98 *143:6 *245:132 4.77807e-05
99 *152:12 *245:20 0.000242133
100 *152:18 *245:20 2.02756e-05
101 *152:46 *245:20 0.000113647
102 *154:10 *245:20 0
103 *157:75 *245:20 7.14946e-05
104 *158:83 *245:20 0
105 *160:150 *1300:S 0.000303473
106 *165:171 *245:33 0.000600065
107 *166:120 *1300:S 0.000193355
108 *167:136 *245:20 0.00027316
109 *168:38 *245:20 0
*RES
1 *1289:Y *245:10 7.49 
2 *245:10 *245:20 29.95 
3 *245:20 *1296:S 1.96 
4 *245:20 *245:33 11.15 
5 *245:33 *1292:S 4.74 
6 *245:33 *245:46 4.91 
7 *245:46 *1298:S 8.7425 
8 *245:46 *245:85 25.375 
9 *245:85 *1294:S 1.96 
10 *245:85 *245:102 14.145 
11 *245:102 *1290:S 1.96 
12 *245:102 *1300:S 12.26 
13 *245:10 *245:132 22.305 
14 *245:132 *1304:S 1.6 
15 *245:132 *1302:S 26.6 
*END

*D_NET *246 0.00138892
*CONN
*I *1291:A I *D sky130_fd_sc_hd__clkbuf_1
*I *1290:X O *D sky130_fd_sc_hd__mux2_1
*CAP
1 *1291:A 0.00033327
2 *1290:X 0.00033327
3 *1291:A *1480:CLK 1.15688e-05
4 *1291:A *1485:CLK 9.52245e-05
5 *1291:A *258:110 0.000150298
6 *1291:A *299:109 2.14609e-05
7 *1216:A2 *1291:A 0.000329332
8 *1258:S *1291:A 0
9 *1266:B1 *1291:A 0.000114492
*RES
1 *1290:X *1291:A 14.145 
*END

*D_NET *247 0.00121126
*CONN
*I *1293:A I *D sky130_fd_sc_hd__clkbuf_1
*I *1292:X O *D sky130_fd_sc_hd__mux2_1
*CAP
1 *1293:A 0.00053942
2 *1292:X 0.00053942
3 *1293:A *1297:A 4.43871e-06
4 *1277:A *1293:A 0.000127985
5 *158:91 *1293:A 0
*RES
1 *1292:X *1293:A 15.9 
*END

*D_NET *248 0.000690611
*CONN
*I *1295:A I *D sky130_fd_sc_hd__clkbuf_1
*I *1294:X O *D sky130_fd_sc_hd__mux2_1
*CAP
1 *1295:A 0.000157382
2 *1294:X 0.000157382
3 *1295:A *1294:A1 0.000112954
4 *1295:A *438:96 0.000154986
5 *172:98 *1295:A 0.000107907
*RES
1 *1294:X *1295:A 10.065 
*END

*D_NET *249 0.000669294
*CONN
*I *1297:A I *D sky130_fd_sc_hd__clkbuf_1
*I *1296:X O *D sky130_fd_sc_hd__mux2_1
*CAP
1 *1297:A 0.000215318
2 *1296:X 0.000215318
3 *1297:A *1457:CLK 1.52945e-05
4 *1297:A *444:66 7.23602e-05
5 *1234:B1 *1297:A 4.99619e-05
6 *1277:A *1297:A 9.50342e-06
7 *1293:A *1297:A 4.43871e-06
8 *1457:D *1297:A 8.71001e-05
9 *142:116 *1297:A 0
10 *158:83 *1297:A 0
11 *158:91 *1297:A 0
*RES
1 *1296:X *1297:A 11.325 
*END

*D_NET *250 0.000744984
*CONN
*I *1299:A I *D sky130_fd_sc_hd__clkbuf_1
*I *1298:X O *D sky130_fd_sc_hd__mux2_1
*CAP
1 *1299:A 0.000153313
2 *1298:X 0.000153313
3 *1299:A *333:16 5.83121e-06
4 *1225:B1 *1299:A 4.89395e-05
5 *1230:B1 *1299:A 8.64599e-05
6 *1231:A1 *1299:A 0.000217066
7 *158:135 *1299:A 8.00607e-05
*RES
1 *1298:X *1299:A 7.475 
*END

*D_NET *251 0.0010467
*CONN
*I *1301:A I *D sky130_fd_sc_hd__clkbuf_1
*I *1300:X O *D sky130_fd_sc_hd__mux2_1
*CAP
1 *1301:A 0.000258908
2 *1300:X 0.000258908
3 *1301:A *1215:A1 3.64998e-06
4 *1301:A *1465:CLK 0.000158196
5 *1301:A *335:106 8.978e-05
6 *1216:B1 *1301:A 1.33293e-05
7 *1221:A2 *1301:A 0.000154355
8 *1221:B2 *1301:A 0.000106713
9 *1258:A1 *1301:A 2.86265e-06
*RES
1 *1300:X *1301:A 12.36 
*END

*D_NET *252 0.00147884
*CONN
*I *1303:A I *D sky130_fd_sc_hd__clkbuf_1
*I *1302:X O *D sky130_fd_sc_hd__mux2_1
*CAP
1 *1303:A 0.000238072
2 *1302:X 0.000238072
3 *1303:A *1207:A1 0.000383682
4 *1303:A *331:105 8.52972e-05
5 *1303:A *477:26 0.000456948
6 *1207:A2 *1303:A 5.83121e-06
7 *1207:B1 *1303:A 2.88689e-05
8 *1302:S *1303:A 3.06507e-05
9 *1460:D *1303:A 1.14192e-05
*RES
1 *1302:X *1303:A 14.13 
*END

*D_NET *253 0.000561443
*CONN
*I *1305:A I *D sky130_fd_sc_hd__clkbuf_1
*I *1304:X O *D sky130_fd_sc_hd__mux2_1
*CAP
1 *1305:A 0.000179925
2 *1304:X 0.000179925
3 *1305:A *1397:A0 0.000124771
4 *1305:A *1461:CLK 0
5 *1461:D *1305:A 7.68237e-05
*RES
1 *1304:X *1305:A 11.325 
*END

*D_NET *254 0.0302555
*CONN
*I *1309:A I *D sky130_fd_sc_hd__inv_2
*I *1310:A I *D sky130_fd_sc_hd__inv_2
*I *1308:A I *D sky130_fd_sc_hd__inv_2
*I *1315:A I *D sky130_fd_sc_hd__inv_2
*I *1316:A I *D sky130_fd_sc_hd__inv_2
*I *1312:A I *D sky130_fd_sc_hd__inv_2
*I *1313:A I *D sky130_fd_sc_hd__inv_2
*I *1314:A I *D sky130_fd_sc_hd__inv_2
*I *1311:A I *D sky130_fd_sc_hd__inv_2
*I *1317:A I *D sky130_fd_sc_hd__inv_2
*I *1307:X O *D sky130_fd_sc_hd__clkbuf_8
*CAP
1 *1309:A 0
2 *1310:A 0
3 *1308:A 0
4 *1315:A 0
5 *1316:A 0.000337223
6 *1312:A 4.07216e-05
7 *1313:A 1.8095e-05
8 *1314:A 0.00017875
9 *1311:A 0.000122093
10 *1317:A 0.000739855
11 *1307:X 6.72372e-05
12 *254:129 0.00140299
13 *254:123 0.00150504
14 *254:113 0.00110262
15 *254:109 0.00327427
16 *254:82 0.00469526
17 *254:61 0.00215421
18 *254:46 0.000861448
19 *254:29 0.00142183
20 *254:8 0.00151663
21 *1312:A *1240:A0 4.49611e-05
22 *1313:A *1640:A 8.49205e-05
23 *1314:A *1492:CLK 2.11084e-05
24 *1316:A *413:20 0.000290445
25 *1317:A *1179:A2 0
26 *1317:A *1179:C1 4.66108e-05
27 *1317:A *1286:A_N 2.96426e-05
28 *1317:A *329:18 0
29 *1317:A *437:8 5.93953e-05
30 *254:8 *1637:A 0.000129234
31 *254:8 *444:12 0.000127429
32 *254:29 *1180:A 0.000141599
33 *254:29 *1637:A 0.00102231
34 *254:29 *418:12 9.50342e-06
35 *254:29 *444:12 0.000652241
36 *254:46 *1222:A0 0.00013413
37 *254:46 *1350:A 0.000162325
38 *254:46 *1355:S 0
39 *254:46 *1615:A 0.000152831
40 *254:46 *1640:A 3.31204e-05
41 *254:46 *268:37 0
42 *254:46 *418:12 0.000150453
43 *254:61 *1492:CLK 8.78813e-05
44 *254:61 *1640:A 0.000114761
45 *254:82 *1240:A0 2.45351e-05
46 *254:82 *1338:A 8.53113e-06
47 *254:82 *1428:S 0.000151458
48 *254:82 *1521:CLK 3.45588e-05
49 *254:82 *1640:A 7.40446e-05
50 *254:82 *299:46 8.51322e-05
51 *254:82 *334:8 5.07419e-05
52 *254:82 *425:55 0.000141606
53 *254:82 *437:122 7.26551e-05
54 *254:82 *455:74 2.67184e-05
55 *254:109 *1240:A0 4.99567e-05
56 *254:109 *1267:A0 4.11251e-05
57 *254:109 *1402:S 0.000108809
58 *254:109 *258:110 0
59 *254:109 *299:97 0.000281367
60 *254:109 *309:37 0.00143848
61 *254:109 *433:20 8.41703e-06
62 *254:113 *1266:A1 4.65643e-05
63 *254:113 *1267:A0 0
64 *254:113 *1592:A 0.000131932
65 *254:113 *342:12 7.58382e-05
66 *254:113 *431:16 0.000262454
67 *254:123 *1270:A2 0.000274668
68 *254:123 *431:16 0
69 *254:129 *1213:A0 0.000117112
70 *254:129 *1270:A1 0.000183817
71 *254:129 *1270:A2 0
72 *254:129 *1270:B1 3.12983e-05
73 *254:129 *1416:S 0.000517716
74 *254:129 *299:135 0
75 *254:129 *413:20 0
76 *254:129 *477:66 0.000941522
77 *254:129 *488:16 0
78 *1179:B1 *1317:A 4.99619e-05
79 *1213:S *254:129 0
80 *1214:A *1316:A 0.000198001
81 *1222:A1 *254:46 8.7943e-06
82 *1223:A *254:46 0
83 *1223:A *254:61 0
84 *1232:A *1313:A 8.49205e-05
85 *1232:A *254:82 0.000163204
86 *1241:A *254:82 5.062e-06
87 *1249:S *1311:A 0
88 *1258:A1 *254:113 0
89 *1463:RESET_B *254:129 0.000162942
90 *1465:RESET_B *254:113 0.000166346
91 *1466:RESET_B *254:46 0
92 *1469:RESET_B *254:46 0
93 *1470:RESET_B *254:129 9.37846e-05
94 *1475:D *1317:A 4.77719e-05
95 *1475:RESET_B *1317:A 0.000152835
96 *1484:D *254:82 6.71882e-05
97 *1492:D *1314:A 4.82319e-06
98 *1517:D *254:123 0
99 *1521:D *254:82 1.75904e-05
100 *157:10 *1317:A 0
101 *163:14 *1311:A 0.000150653
102 *163:14 *254:29 0
103 *163:24 *1311:A 1.08758e-05
104 *163:24 *254:46 0.000485031
105 *163:70 *254:82 0.000191302
106 *172:98 *254:109 1.93834e-05
107 *172:108 *254:109 4.66742e-05
108 *219:20 *1311:A 1.41165e-05
*RES
1 *1307:X *254:8 6.255 
2 *254:8 *1317:A 17.23 
3 *254:8 *254:29 21.525 
4 *254:29 *1311:A 5.79 
5 *254:29 *254:46 14.685 
6 *254:46 *1314:A 5.955 
7 *254:46 *254:61 4.655 
8 *254:61 *1313:A 2.395 
9 *254:61 *254:82 34.6 
10 *254:82 *1312:A 2.635 
11 *254:82 *254:109 17.1751 
12 *254:109 *254:113 16.64 
13 *254:113 *254:123 9.665 
14 *254:123 *254:129 28.585 
15 *254:129 *1316:A 8.635 
16 *254:129 *1315:A 1.6 
17 *254:123 *1308:A 1.6 
18 *254:113 *1310:A 3.6 
19 *254:109 *1309:A 1.6 
*END

*D_NET *255 0.000989624
*CONN
*I *1363:B I *D sky130_fd_sc_hd__and3b_1
*I *1327:A I *D sky130_fd_sc_hd__and2_1
*I *1345:C I *D sky130_fd_sc_hd__and3b_1
*I *1325:X O *D sky130_fd_sc_hd__and4b_1
*CAP
1 *1363:B 6.41855e-05
2 *1327:A 1.85337e-05
3 *1345:C 1.57634e-05
4 *1325:X 8.35552e-05
5 *255:19 0.000173988
6 *255:8 0.000190587
7 *1327:A *1327:B 1.16578e-05
8 *1345:C *268:26 4.77807e-05
9 *1345:C *514:53 3.62258e-06
10 *1345:C *514:59 1.34687e-05
11 *1363:B *1327:B 7.4027e-05
12 *1363:B *1345:A_N 7.53115e-05
13 *1363:B *258:14 0
14 *255:8 *1345:A_N 1.82111e-05
15 *255:8 *514:53 3.72007e-05
16 *255:19 *1345:A_N 6.90544e-05
17 *1399:C *255:8 4.43855e-05
18 *168:38 *1327:A 4.82919e-05
*RES
1 *1325:X *255:8 5.49 
2 *255:8 *1345:C 4.05 
3 *255:8 *255:19 1.635 
4 *255:19 *1327:A 4.05 
5 *255:19 *1363:B 5.235 
*END

*D_NET *256 0.00260511
*CONN
*I *1400:A I *D sky130_fd_sc_hd__and2_1
*I *1327:B I *D sky130_fd_sc_hd__and2_1
*I *1326:Y O *D sky130_fd_sc_hd__nor2_1
*CAP
1 *1400:A 0.00010594
2 *1327:B 0.000275974
3 *1326:Y 0.000262005
4 *256:10 0.000643919
5 *1327:B *1328:A 0
6 *1327:B *1345:A_N 4.98924e-05
7 *1327:B *1436:A_N 1.38088e-05
8 *1327:B *514:115 0.000154867
9 *1327:B *515:65 6.83447e-05
10 *1400:A *1400:B 4.82863e-05
11 *1400:A *1401:A 8.69098e-05
12 *1400:A *1436:A_N 4.66108e-05
13 *1400:A *297:25 1.52249e-05
14 *1400:A *515:61 0.000301809
15 *1400:A *515:91 4.66108e-05
16 *1400:A *515:102 4.35648e-05
17 *256:10 *1326:A 0
18 *256:10 *1647:A 0
19 *256:10 *1652:A 0.000235573
20 *256:10 *514:115 7.4027e-05
21 *1327:A *1327:B 1.16578e-05
22 *1363:B *1327:B 7.4027e-05
23 *168:38 *1327:B 4.60584e-05
*RES
1 *1326:Y *256:10 7.41 
2 *256:10 *1327:B 9.345 
3 *256:10 *1400:A 7.185 
*END

*D_NET *257 0.000316418
*CONN
*I *1328:A I *D sky130_fd_sc_hd__clkbuf_4
*I *1327:X O *D sky130_fd_sc_hd__and2_1
*CAP
1 *1328:A 0.000123864
2 *1327:X 0.000123864
3 *1328:A *258:14 5.13029e-05
4 *1327:B *1328:A 0
5 *168:38 *1328:A 1.7386e-05
*RES
1 *1327:X *1328:A 9.285 
*END

*D_NET *258 0.0231229
*CONN
*I *1335:S I *D sky130_fd_sc_hd__mux2_1
*I *1331:S I *D sky130_fd_sc_hd__mux2_1
*I *1329:S I *D sky130_fd_sc_hd__mux2_1
*I *1339:S I *D sky130_fd_sc_hd__mux2_1
*I *1333:S I *D sky130_fd_sc_hd__mux2_1
*I *1337:S I *D sky130_fd_sc_hd__mux2_1
*I *1341:S I *D sky130_fd_sc_hd__mux2_1
*I *1343:S I *D sky130_fd_sc_hd__mux2_1
*I *1328:X O *D sky130_fd_sc_hd__clkbuf_4
*CAP
1 *1335:S 0
2 *1331:S 0
3 *1329:S 0.000113728
4 *1339:S 0.000339284
5 *1333:S 0
6 *1337:S 9.98428e-05
7 *1341:S 0.00052662
8 *1343:S 2.08101e-05
9 *1328:X 1.17375e-05
10 *258:110 0.00208208
11 *258:85 0.00237945
12 *258:60 0.00117367
13 *258:56 0.000855234
14 *258:40 0.00154383
15 *258:14 0.00138984
16 *258:8 0.00186619
17 *1329:S *1329:A0 5.06989e-05
18 *1329:S *1329:A1 7.63444e-05
19 *1329:S *1330:A 4.35648e-05
20 *1339:S *1221:A1 0.000151859
21 *1339:S *1340:A 0.000180598
22 *1339:S *466:10 0
23 *1341:S *1212:A1 0.000517034
24 *1341:S *1342:A 4.60061e-05
25 *1341:S *1343:A0 8.82557e-05
26 *1341:S *1581:A 8.09157e-05
27 *1343:S *1343:A0 0
28 *258:8 *1364:A 4.82919e-05
29 *258:14 *1193:A1 1.47347e-05
30 *258:14 *1343:A0 5.30673e-05
31 *258:14 *1344:A 0.000162311
32 *258:14 *1361:A1 4.66108e-05
33 *258:14 *1361:S 0.000270713
34 *258:14 *1581:A 4.16445e-05
35 *258:14 *514:115 0
36 *258:40 *1326:A 0
37 *258:40 *1335:A0 1.76441e-05
38 *258:40 *1364:A 4.34827e-05
39 *258:40 *1401:A 0.000139245
40 *258:40 *1418:C 0
41 *258:40 *1419:A 0.000270647
42 *258:40 *1444:S 0
43 *258:40 *1523:CLK 4.99619e-05
44 *258:40 *278:61 0.000122023
45 *258:40 *299:14 0
46 *258:40 *309:10 0.000789561
47 *258:40 *309:23 0.000159964
48 *258:40 *444:81 9.56256e-05
49 *258:40 *514:115 0
50 *258:56 *1257:A1 4.88478e-05
51 *258:56 *1331:A0 1.77665e-05
52 *258:56 *1335:A0 5.92191e-05
53 *258:56 *1483:CLK 0
54 *258:56 *299:22 1.94636e-05
55 *258:56 *437:122 0
56 *258:60 *1230:A1 0.000137065
57 *258:60 *1331:A0 0.000237718
58 *258:60 *1483:CLK 0.00017734
59 *258:85 *1230:A1 0.000108322
60 *258:85 *1248:A1 0.000337418
61 *258:85 *1337:A0 0
62 *258:85 *1351:A0 0.000198939
63 *258:85 *1351:A1 0.000160635
64 *258:85 *1351:S 0.000568985
65 *258:85 *422:50 0
66 *258:85 *433:50 0.000302113
67 *258:85 *438:75 0.000498955
68 *258:85 *455:50 0
69 *258:110 *1248:A1 2.30292e-05
70 *258:110 *1294:A1 0
71 *258:110 *1329:A1 0.000305039
72 *258:110 *1330:A 0.000158532
73 *258:110 *1351:S 8.77498e-05
74 *258:110 *1480:CLK 0.000120186
75 *258:110 *299:109 1.67879e-05
76 *258:110 *339:14 2.05056e-05
77 *258:110 *433:22 0
78 *1193:B1 *258:14 4.66108e-05
79 *1194:B1 *258:14 0.000759194
80 *1212:B1 *1341:S 3.64886e-05
81 *1212:B2 *1341:S 4.82919e-05
82 *1216:A2 *1339:S 1.1858e-05
83 *1230:A2 *258:60 0
84 *1239:B1 *258:56 0.000141472
85 *1248:B2 *258:85 4.70919e-05
86 *1257:B1 *258:56 0.000198339
87 *1257:B2 *258:60 0
88 *1257:B2 *258:85 0
89 *1258:S *1339:S 0.000157956
90 *1291:A *258:110 0.000150298
91 *1328:A *258:14 5.13029e-05
92 *1363:B *258:14 0
93 *1480:D *1329:S 3.70519e-05
94 *1523:D *258:40 0.000164377
95 *1537:A *258:56 0.00018471
96 *158:45 *258:8 2.75229e-05
97 *158:135 *1337:S 7.54579e-05
98 *158:158 *258:110 0.000345083
99 *163:197 *258:40 1.7635e-05
100 *165:171 *258:60 0
101 *168:38 *258:14 0.000653206
102 *176:24 *258:40 9.18057e-05
103 *219:20 *258:40 1.7386e-05
104 *219:20 *258:56 0.000292059
105 *254:109 *258:110 0
*RES
1 *1328:X *258:8 4.05 
2 *258:8 *258:14 21.845 
3 *258:14 *1343:S 1.96 
4 *258:14 *1341:S 12.175 
5 *258:8 *258:40 24.215 
6 *258:40 *258:56 19.46 
7 *258:56 *258:60 8.48 
8 *258:60 *1337:S 5.43 
9 *258:60 *258:85 20.885 
10 *258:85 *1333:S 1.6 
11 *258:85 *258:110 13.9883 
12 *258:110 *1339:S 12.35 
13 *258:110 *1329:S 4.495 
14 *258:56 *1331:S 1.6 
15 *258:40 *1335:S 1.6 
*END

*D_NET *259 0.000397449
*CONN
*I *1330:A I *D sky130_fd_sc_hd__clkbuf_1
*I *1329:X O *D sky130_fd_sc_hd__mux2_1
*CAP
1 *1330:A 8.14291e-05
2 *1329:X 8.14291e-05
3 *1329:S *1330:A 4.35648e-05
4 *1480:D *1330:A 3.24942e-05
5 *258:110 *1330:A 0.000158532
*RES
1 *1329:X *1330:A 5.3 
*END

*D_NET *260 0.000889997
*CONN
*I *1332:A I *D sky130_fd_sc_hd__clkbuf_1
*I *1331:X O *D sky130_fd_sc_hd__mux2_1
*CAP
1 *1332:A 0.00022703
2 *1331:X 0.00022703
3 *1332:A *1230:A1 7.59111e-05
4 *1230:A2 *1332:A 4.2801e-05
5 *1481:D *1332:A 0.000261009
6 *165:171 *1332:A 5.62161e-05
*RES
1 *1331:X *1332:A 12.465 
*END

*D_NET *261 0.00183806
*CONN
*I *1334:A I *D sky130_fd_sc_hd__clkbuf_1
*I *1333:X O *D sky130_fd_sc_hd__mux2_1
*CAP
1 *1334:A 0.000300005
2 *1333:X 0.000300005
3 *1334:A *1351:S 8.40269e-05
4 *1334:A *1545:A 0.000218084
5 *1334:A *278:61 0
6 *1334:A *336:34 0.000500239
7 *1248:A2 *1334:A 9.50342e-06
8 *1248:B1 *1334:A 0
9 *1482:D *1334:A 0.000426195
*RES
1 *1333:X *1334:A 15.24 
*END

*D_NET *262 0.000706522
*CONN
*I *1336:A I *D sky130_fd_sc_hd__clkbuf_1
*I *1335:X O *D sky130_fd_sc_hd__mux2_1
*CAP
1 *1336:A 0.000266683
2 *1335:X 0.000266683
3 *1336:A *1408:A0 0
4 *1336:A *1409:A 0.000144369
5 *1336:A *330:50 0
6 *1336:A *372:12 2.87867e-05
7 *1336:A *444:81 0
8 *1336:A *444:83 0
*RES
1 *1335:X *1336:A 11.67 
*END

*D_NET *263 0.000901562
*CONN
*I *1338:A I *D sky130_fd_sc_hd__clkbuf_1
*I *1337:X O *D sky130_fd_sc_hd__mux2_1
*CAP
1 *1338:A 0.000167265
2 *1337:X 0.000167265
3 *1338:A *425:55 0.000261168
4 *1338:A *437:122 0.000287542
5 *158:135 *1338:A 9.79037e-06
6 *254:82 *1338:A 8.53113e-06
*RES
1 *1337:X *1338:A 11.415 
*END

*D_NET *264 0.000771969
*CONN
*I *1340:A I *D sky130_fd_sc_hd__clkbuf_1
*I *1339:X O *D sky130_fd_sc_hd__mux2_1
*CAP
1 *1340:A 0.00015291
2 *1339:X 0.00015291
3 *1340:A *1485:CLK 0.000121027
4 *1258:S *1340:A 8.10182e-05
5 *1339:S *1340:A 0.000180598
6 *1485:D *1340:A 8.35068e-05
*RES
1 *1339:X *1340:A 10.77 
*END

*D_NET *265 0.000643731
*CONN
*I *1342:A I *D sky130_fd_sc_hd__clkbuf_1
*I *1341:X O *D sky130_fd_sc_hd__mux2_1
*CAP
1 *1342:A 0.000241483
2 *1341:X 0.000241483
3 *1342:A *1486:CLK 5.83121e-06
4 *1342:A *1584:A 4.00541e-06
5 *1342:A *331:133 9.08126e-05
6 *1212:B2 *1342:A 0
7 *1341:S *1342:A 4.60061e-05
8 *1486:D *1342:A 1.41095e-05
*RES
1 *1341:X *1342:A 10.875 
*END

*D_NET *266 0.00110936
*CONN
*I *1344:A I *D sky130_fd_sc_hd__clkbuf_1
*I *1343:X O *D sky130_fd_sc_hd__mux2_1
*CAP
1 *1344:A 0.000206075
2 *1343:X 0.000206075
3 *1344:A *1201:A1 0
4 *1344:A *1343:A1 0.00011852
5 *1344:A *488:32 0.000170484
6 *1204:A1 *1344:A 0.000245893
7 *258:14 *1344:A 0.000162311
*RES
1 *1343:X *1344:A 12.105 
*END

*D_NET *267 0.000205793
*CONN
*I *1346:A I *D sky130_fd_sc_hd__clkbuf_4
*I *1345:X O *D sky130_fd_sc_hd__and3b_1
*CAP
1 *1346:A 7.13089e-05
2 *1345:X 7.13089e-05
3 *1346:A *268:26 6.31756e-05
*RES
1 *1345:X *1346:A 4.355 
*END

*D_NET *268 0.027213
*CONN
*I *1359:S I *D sky130_fd_sc_hd__mux2_1
*I *1351:S I *D sky130_fd_sc_hd__mux2_1
*I *1347:S I *D sky130_fd_sc_hd__mux2_1
*I *1357:S I *D sky130_fd_sc_hd__mux2_1
*I *1361:S I *D sky130_fd_sc_hd__mux2_1
*I *1355:S I *D sky130_fd_sc_hd__mux2_1
*I *1349:S I *D sky130_fd_sc_hd__mux2_1
*I *1353:S I *D sky130_fd_sc_hd__mux2_1
*I *1346:X O *D sky130_fd_sc_hd__clkbuf_4
*CAP
1 *1359:S 0.000295592
2 *1351:S 0.000871076
3 *1347:S 0.000333967
4 *1357:S 2.00657e-05
5 *1361:S 4.98195e-05
6 *1355:S 0.000398781
7 *1349:S 9.6164e-05
8 *1353:S 4.32911e-05
9 *1346:X 0
10 *268:101 0.0016831
11 *268:86 0.00141645
12 *268:75 0.00112559
13 *268:67 0.00143966
14 *268:37 0.0011992
15 *268:26 0.00308183
16 *268:4 0.00332091
17 *1347:S *1347:A0 2.76356e-05
18 *1347:S *1383:A0 6.07575e-06
19 *1349:S *1349:A0 1.33293e-05
20 *1349:S *1349:A1 2.93678e-05
21 *1349:S *1350:A 3.50152e-06
22 *1351:S *1351:A0 5.05437e-05
23 *1351:S *1383:A1 3.67779e-05
24 *1351:S *1488:CLK 2.11084e-05
25 *1351:S *319:84 6.28498e-05
26 *1351:S *339:14 0.000107424
27 *1353:S *1353:A0 8.64421e-05
28 *1353:S *444:31 0.00016031
29 *1355:S *1349:A0 3.79351e-05
30 *1355:S *333:20 1.31227e-05
31 *1357:S *1357:A1 0.000123589
32 *1357:S *425:28 0.000123589
33 *1359:S *1206:B2 5.74791e-05
34 *1359:S *1359:A1 9.12671e-06
35 *1359:S *1395:A0 1.42674e-05
36 *1359:S *1581:A 0.000194921
37 *1359:S *331:34 0.000164329
38 *1359:S *477:26 1.79098e-05
39 *268:26 *1152:A 2.01737e-05
40 *268:26 *1152:B 0.000217034
41 *268:26 *1345:A_N 1.08105e-05
42 *268:26 *288:68 0.000224017
43 *268:26 *499:8 4.92069e-05
44 *268:26 *499:19 0.000131931
45 *268:26 *514:53 6.28206e-06
46 *268:26 *514:59 7.03901e-06
47 *268:26 *516:53 8.28018e-06
48 *268:26 *516:59 1.58625e-05
49 *268:37 *1233:B2 0.000232586
50 *268:37 *1350:A 0
51 *268:37 *1566:A 0.00011432
52 *268:67 *1362:A 8.81386e-06
53 *268:67 *1495:CLK 3.82958e-05
54 *268:67 *331:23 0.000107903
55 *268:67 *331:34 3.90905e-05
56 *268:75 *1193:A1 0.000109464
57 *268:75 *1652:A 2.09211e-05
58 *268:75 *352:12 6.4407e-05
59 *268:86 *1210:A1 1.29665e-05
60 *268:86 *1448:A0 0
61 *268:86 *1450:A1 0.000193869
62 *268:86 *1578:A 9.29751e-06
63 *268:86 *1652:A 0.000242051
64 *268:86 *319:38 0.000487056
65 *268:86 *319:47 0.000207432
66 *268:86 *319:84 0.000477519
67 *268:86 *328:36 0
68 *268:86 *332:10 2.45838e-05
69 *268:86 *390:12 0.000137571
70 *268:86 *488:108 0.000441811
71 *268:101 *1383:A1 2.23407e-05
72 *268:101 *1383:S 0.000224679
73 *268:101 *1393:S 4.01578e-05
74 *268:101 *1544:A 0
75 *268:101 *319:84 0.000898157
76 *268:101 *328:20 0
77 *1165:A *268:26 4.77719e-05
78 *1165:B *268:26 0.0002774
79 *1178:B *268:26 0.000348441
80 *1185:A1 *268:26 2.68464e-05
81 *1185:A2 *268:26 0.000412271
82 *1185:B1_N *268:26 5.56516e-05
83 *1231:A1 *1355:S 1.59888e-05
84 *1302:S *1359:S 0.000268184
85 *1318:A *268:26 0.000103192
86 *1334:A *1351:S 8.40269e-05
87 *1345:C *268:26 4.77807e-05
88 *1346:A *268:26 6.31756e-05
89 *1399:C *268:26 0.000156152
90 *1399:D *268:26 0.00013443
91 *1472:RESET_B *268:26 0.000163985
92 *1488:D *1351:S 4.82319e-06
93 *1494:D *268:67 4.32354e-05
94 *1494:D *268:75 7.27587e-05
95 *1495:D *268:67 0.000100621
96 *1501:D *268:86 0.000139238
97 *1505:D *268:37 3.79351e-05
98 *1507:D *268:37 5.05228e-05
99 *148:6 *268:26 8.73389e-06
100 *152:72 *268:26 4.94587e-05
101 *157:10 *268:26 0.000306859
102 *157:60 *268:26 0.000155608
103 *158:12 *268:26 0.000308716
104 *163:45 *1355:S 0.000145069
105 *163:203 *268:86 0
106 *165:63 *268:86 0
107 *167:84 *1347:S 0.000325026
108 *168:16 *268:26 9.24948e-05
109 *168:38 *1361:S 0.000270713
110 *219:20 *1351:S 0.000385333
111 *254:46 *1355:S 0
112 *254:46 *268:37 0
113 *258:14 *1361:S 0.000270713
114 *258:85 *1351:S 0.000568985
115 *258:110 *1351:S 8.77498e-05
*RES
1 *1346:X *268:4 1.6 
2 *268:4 *268:26 49.635 
3 *268:26 *1353:S 5.085 
4 *268:26 *268:37 12.345 
5 *268:37 *1349:S 5.46 
6 *268:37 *1355:S 10.41 
7 *268:4 *268:67 12.36 
8 *268:67 *268:75 5.465 
9 *268:75 *1361:S 6.12 
10 *268:75 *268:86 22.29 
11 *268:86 *1357:S 4.74 
12 *268:86 *268:101 11.625 
13 *268:101 *1347:S 8.115 
14 *268:101 *1351:S 19.545 
15 *268:67 *1359:S 8.215 
*END

*D_NET *269 0.000869275
*CONN
*I *1348:A I *D sky130_fd_sc_hd__clkbuf_1
*I *1347:X O *D sky130_fd_sc_hd__mux2_1
*CAP
1 *1348:A 0.000181297
2 *1347:X 0.000181297
3 *1348:A *1383:A0 0.000101995
4 *1348:A *1383:A1 8.23457e-05
5 *1348:A *1384:A 4.79892e-05
6 *1504:D *1348:A 2.45498e-05
7 *167:84 *1348:A 0.000249801
*RES
1 *1347:X *1348:A 11.715 
*END

*D_NET *270 0.0010252
*CONN
*I *1350:A I *D sky130_fd_sc_hd__clkbuf_1
*I *1349:X O *D sky130_fd_sc_hd__mux2_1
*CAP
1 *1350:A 0.0003315
2 *1349:X 0.0003315
3 *1350:A *333:39 0.00019637
4 *1349:S *1350:A 3.50152e-06
5 *254:46 *1350:A 0.000162325
6 *268:37 *1350:A 0
*RES
1 *1349:X *1350:A 13.11 
*END

*D_NET *271 0.000760274
*CONN
*I *1352:A I *D sky130_fd_sc_hd__clkbuf_1
*I *1351:X O *D sky130_fd_sc_hd__mux2_1
*CAP
1 *1352:A 0.000274275
2 *1351:X 0.000274275
3 *1352:A *1490:CLK 5.0751e-05
4 *1257:B2 *1352:A 2.67022e-05
5 *1490:D *1352:A 5.4037e-05
6 *158:135 *1352:A 7.8726e-06
7 *167:65 *1352:A 7.23602e-05
*RES
1 *1351:X *1352:A 11.46 
*END

*D_NET *272 0.000135753
*CONN
*I *1354:A I *D sky130_fd_sc_hd__clkbuf_1
*I *1353:X O *D sky130_fd_sc_hd__mux2_1
*CAP
1 *1354:A 6.78764e-05
2 *1353:X 6.78764e-05
*RES
1 *1353:X *1354:A 4.265 
*END

*D_NET *273 0.000317699
*CONN
*I *1356:A I *D sky130_fd_sc_hd__clkbuf_1
*I *1355:X O *D sky130_fd_sc_hd__mux2_1
*CAP
1 *1356:A 8.2555e-05
2 *1355:X 8.2555e-05
3 *1356:A *1355:A0 4.22574e-05
4 *1356:A *333:20 4.89295e-05
5 *163:45 *1356:A 6.14024e-05
*RES
1 *1355:X *1356:A 9.03 
*END

*D_NET *274 0.000172812
*CONN
*I *1358:A I *D sky130_fd_sc_hd__clkbuf_1
*I *1357:X O *D sky130_fd_sc_hd__mux2_1
*CAP
1 *1358:A 3.96977e-05
2 *1357:X 3.96977e-05
3 *1358:A *425:28 3.93576e-05
4 *172:53 *1358:A 5.40592e-05
*RES
1 *1357:X *1358:A 4.265 
*END

*D_NET *275 0.000908355
*CONN
*I *1360:A I *D sky130_fd_sc_hd__clkbuf_1
*I *1359:X O *D sky130_fd_sc_hd__mux2_1
*CAP
1 *1360:A 0.000197109
2 *1359:X 0.000197109
3 *1360:A *331:105 8.41384e-05
4 *1206:A2 *1360:A 7.1624e-05
5 *1206:B1 *1360:A 1.19928e-05
6 *1302:S *1360:A 0.000346381
*RES
1 *1359:X *1360:A 11.91 
*END

*D_NET *276 0.00119228
*CONN
*I *1362:A I *D sky130_fd_sc_hd__clkbuf_1
*I *1361:X O *D sky130_fd_sc_hd__mux2_1
*CAP
1 *1362:A 0.000395642
2 *1361:X 0.000395642
3 *1362:A *1194:A1 0
4 *1362:A *1495:CLK 0.000235378
5 *1362:A *1503:CLK 4.43871e-06
6 *1362:A *331:12 3.61339e-05
7 *1362:A *331:23 8.53011e-05
8 *1495:D *1362:A 3.0933e-05
9 *268:67 *1362:A 8.81386e-06
*RES
1 *1361:X *1362:A 12.93 
*END

*D_NET *277 0.000844878
*CONN
*I *1364:A I *D sky130_fd_sc_hd__clkbuf_4
*I *1363:X O *D sky130_fd_sc_hd__and3b_1
*CAP
1 *1364:A 0.000314639
2 *1363:X 0.000314639
3 *158:45 *1364:A 0.000123826
4 *258:8 *1364:A 4.82919e-05
5 *258:40 *1364:A 4.34827e-05
*RES
1 *1363:X *1364:A 11.535 
*END

*D_NET *278 0.0187395
*CONN
*I *1371:S I *D sky130_fd_sc_hd__mux2_1
*I *1367:S I *D sky130_fd_sc_hd__mux2_1
*I *1373:S I *D sky130_fd_sc_hd__mux2_1
*I *1369:S I *D sky130_fd_sc_hd__mux2_1
*I *1365:S I *D sky130_fd_sc_hd__mux2_1
*I *1375:S I *D sky130_fd_sc_hd__mux2_1
*I *1377:S I *D sky130_fd_sc_hd__mux2_1
*I *1379:S I *D sky130_fd_sc_hd__mux2_1
*I *1364:X O *D sky130_fd_sc_hd__clkbuf_4
*CAP
1 *1371:S 0
2 *1367:S 0
3 *1373:S 0.000403441
4 *1369:S 0
5 *1365:S 0.000550418
6 *1375:S 0.00018504
7 *1377:S 0
8 *1379:S 0
9 *1364:X 0.000123214
10 *278:75 0.0012677
11 *278:65 0.00127822
12 *278:61 0.00169238
13 *278:53 0.00192072
14 *278:31 0.00085287
15 *278:20 0.000845394
16 *278:8 0.000686612
17 *1365:S *1369:A0 1.08105e-05
18 *1365:S *1439:A 0.000199309
19 *1365:S *1638:A 0
20 *1365:S *336:97 0.00018261
21 *1365:S *355:10 0
22 *1373:S *1440:A0 1.75795e-05
23 *1373:S *1440:A1 3.3625e-05
24 *1373:S *1446:S 0.000402498
25 *1373:S *319:106 4.77769e-05
26 *1373:S *334:104 2.69153e-05
27 *1375:S *1547:A 9.12494e-06
28 *278:8 *1401:A 0
29 *278:8 *1437:A 0
30 *278:8 *299:14 5.56629e-05
31 *278:20 *1379:A0 8.51879e-05
32 *278:20 *1444:S 0.000111302
33 *278:20 *1652:A 0.000632591
34 *278:20 *319:27 0.000148647
35 *278:31 *1201:A1 6.4422e-05
36 *278:31 *1379:A0 1.46744e-05
37 *278:31 *1527:CLK 0.000160635
38 *278:31 *1541:A 8.35106e-05
39 *278:31 *1652:A 0.000269814
40 *278:31 *332:10 8.09157e-05
41 *278:53 *1371:A0 4.6075e-05
42 *278:53 *1437:A 0
43 *278:53 *299:14 0.000843472
44 *278:61 *1367:A0 0.000201503
45 *278:61 *1370:A 0
46 *278:61 *1427:A 0.000194092
47 *278:61 *1618:A 0
48 *278:61 *1651:A 0
49 *278:61 *299:14 0.000138613
50 *278:61 *309:23 0.00116263
51 *278:61 *309:89 0.00014589
52 *278:61 *433:50 7.23602e-05
53 *278:61 *438:96 4.00189e-05
54 *278:65 *1440:A1 0.00012416
55 *278:75 *1369:A0 4.41506e-05
56 *1190:A *278:53 0.000235903
57 *1201:A2 *1375:S 0.000178893
58 *1201:A2 *278:31 0.000368228
59 *1228:B1 *278:75 0.000646943
60 *1248:A2 *278:61 0
61 *1248:B1 *278:61 0.000138551
62 *1248:B2 *278:61 0
63 *1256:C1 *278:61 0.000141256
64 *1334:A *278:61 0
65 *1523:D *278:61 0.00031682
66 *1526:D *1375:S 0
67 *1528:D *1365:S 5.03256e-05
68 *160:70 *278:53 0.000294454
69 *166:10 *278:61 0
70 *172:108 *278:61 0
71 *175:63 *1375:S 0.000164791
72 *175:86 *278:61 8.33066e-06
73 *176:87 *1365:S 0.000385718
74 *176:95 *278:75 0.000230656
75 *258:40 *278:61 0.000122023
*RES
1 *1364:X *278:8 5.235 
2 *278:8 *278:20 9.5 
3 *278:20 *1379:S 1.6 
4 *278:20 *278:31 15.83 
5 *278:31 *1377:S 3.6 
6 *278:31 *1375:S 7.785 
7 *278:8 *278:53 13.1 
8 *278:53 *278:61 37.6 
9 *278:61 *278:65 4.655 
10 *278:65 *278:75 12.5 
11 *278:75 *1365:S 16.82 
12 *278:75 *1369:S 1.6 
13 *278:65 *1373:S 11.13 
14 *278:61 *1367:S 1.6 
15 *278:53 *1371:S 1.6 
*END

*D_NET *279 0.00138859
*CONN
*I *1366:A I *D sky130_fd_sc_hd__clkbuf_1
*I *1365:X O *D sky130_fd_sc_hd__mux2_1
*CAP
1 *1366:A 0.000665813
2 *1365:X 0.000665813
3 *1366:A *1365:A0 3.00381e-05
4 *1366:A *1595:A 0
5 *1496:D *1366:A 2.69217e-05
*RES
1 *1365:X *1366:A 15.84 
*END

*D_NET *280 0.000440263
*CONN
*I *1368:A I *D sky130_fd_sc_hd__clkbuf_1
*I *1367:X O *D sky130_fd_sc_hd__mux2_1
*CAP
1 *1368:A 0.000202578
2 *1367:X 0.000202578
3 *1497:D *1368:A 3.51072e-05
*RES
1 *1367:X *1368:A 6.335 
*END

*D_NET *281 0.000433192
*CONN
*I *1370:A I *D sky130_fd_sc_hd__clkbuf_1
*I *1369:X O *D sky130_fd_sc_hd__mux2_1
*CAP
1 *1370:A 0.000105748
2 *1369:X 0.000105748
3 *1370:A *1651:A 0.000135106
4 *175:86 *1370:A 8.65905e-05
5 *278:61 *1370:A 0
*RES
1 *1369:X *1370:A 9.63 
*END

*D_NET *282 0.000688198
*CONN
*I *1372:A I *D sky130_fd_sc_hd__clkbuf_1
*I *1371:X O *D sky130_fd_sc_hd__mux2_1
*CAP
1 *1372:A 0.000158168
2 *1371:X 0.000158168
3 *1372:A *1534:CLK 6.18661e-05
4 *1372:A *309:10 3.89366e-05
5 *1372:A *330:65 0.000122202
6 *1499:D *1372:A 0.000148858
*RES
1 *1371:X *1372:A 11.205 
*END

*D_NET *283 0.00108564
*CONN
*I *1374:A I *D sky130_fd_sc_hd__clkbuf_1
*I *1373:X O *D sky130_fd_sc_hd__mux2_1
*CAP
1 *1374:A 0.00041116
2 *1373:X 0.00041116
3 *1374:A *1529:CLK 0
4 *1374:A *1650:A 3.68682e-05
5 *1374:A *1654:A 6.92319e-05
6 *1374:A *425:71 0.000108937
7 *1374:A *437:122 4.82863e-05
8 *1529:D *1374:A 0
*RES
1 *1373:X *1374:A 14.28 
*END

*D_NET *284 0.000446021
*CONN
*I *1376:A I *D sky130_fd_sc_hd__clkbuf_1
*I *1375:X O *D sky130_fd_sc_hd__mux2_1
*CAP
1 *1376:A 0.000103889
2 *1375:X 0.000103889
3 *1376:A *1448:A1 0.000227368
4 *1376:A *1448:S 1.08758e-05
*RES
1 *1375:X *1376:A 5.645 
*END

*D_NET *285 0.000546313
*CONN
*I *1378:A I *D sky130_fd_sc_hd__clkbuf_1
*I *1377:X O *D sky130_fd_sc_hd__mux2_1
*CAP
1 *1378:A 0.000140349
2 *1377:X 0.000140349
3 *1378:A *1210:A1 0.000118907
4 *1378:A *1450:A1 0.000146707
*RES
1 *1377:X *1378:A 6.35 
*END

*D_NET *286 0.000958268
*CONN
*I *1380:A I *D sky130_fd_sc_hd__clkbuf_1
*I *1379:X O *D sky130_fd_sc_hd__mux2_1
*CAP
1 *1380:A 0.000306128
2 *1379:X 0.000306128
3 *1380:A *1437:A 0
4 *1380:A *1503:CLK 0.000117825
5 *1380:A *1540:A 2.01541e-05
6 *1380:A *1652:A 8.65961e-05
7 *1194:A2 *1380:A 0
8 *158:45 *1380:A 0.000121437
*RES
1 *1379:X *1380:A 12.66 
*END

*D_NET *287 0.000209552
*CONN
*I *1382:A I *D sky130_fd_sc_hd__clkbuf_4
*I *1381:X O *D sky130_fd_sc_hd__or3b_1
*CAP
1 *1382:A 8.19413e-05
2 *1381:X 8.19413e-05
3 *1382:A *1162:A 0
4 *1382:A *1381:A 5.83121e-06
5 *1382:A *329:62 9.80032e-06
6 *1164:A *1382:A 3.00381e-05
*RES
1 *1381:X *1382:A 4.355 
*END

*D_NET *288 0.0270389
*CONN
*I *1389:S I *D sky130_fd_sc_hd__mux2_1
*I *1391:S I *D sky130_fd_sc_hd__mux2_1
*I *1385:S I *D sky130_fd_sc_hd__mux2_1
*I *1383:S I *D sky130_fd_sc_hd__mux2_1
*I *1393:S I *D sky130_fd_sc_hd__mux2_1
*I *1387:S I *D sky130_fd_sc_hd__mux2_1
*I *1397:S I *D sky130_fd_sc_hd__mux2_1
*I *1395:S I *D sky130_fd_sc_hd__mux2_1
*I *1382:X O *D sky130_fd_sc_hd__clkbuf_4
*CAP
1 *1389:S 0
2 *1391:S 0.000325496
3 *1385:S 0
4 *1383:S 0.000125914
5 *1393:S 0.000601772
6 *1387:S 2.83646e-05
7 *1397:S 1.31948e-05
8 *1395:S 0.000329068
9 *1382:X 3.70101e-05
10 *288:111 0.00169707
11 *288:100 0.00299156
12 *288:78 0.00199381
13 *288:76 0.000652316
14 *288:68 0.00144478
15 *288:38 0.00253415
16 *288:8 0.00334685
17 *1383:S *1215:B1 0
18 *1383:S *1383:A1 4.92971e-05
19 *1387:S *363:14 1.77945e-05
20 *1391:S *1251:A1 8.11492e-05
21 *1391:S *362:10 5.53249e-06
22 *1391:S *455:33 1.22676e-05
23 *1393:S *1215:B2 7.63204e-05
24 *1393:S *1431:A 0
25 *1393:S *319:84 8.33066e-06
26 *1393:S *335:85 6.14123e-05
27 *1395:S *1395:A0 8.65905e-05
28 *1395:S *1396:A 0.000203178
29 *1395:S *1397:A1 0.000180553
30 *1395:S *1644:A 0.000792119
31 *1397:S *1397:A1 4.89295e-05
32 *1397:S *1644:A 8.52883e-05
33 *288:38 *1162:A 0.000237713
34 *288:38 *1306:A 4.95266e-05
35 *288:38 *1397:A0 0.000114492
36 *288:38 *1462:CLK 3.54025e-05
37 *288:38 *1478:CLK 5.28983e-05
38 *288:38 *1644:A 4.66108e-05
39 *288:38 *331:48 5.32178e-05
40 *288:38 *499:8 0
41 *288:38 *516:6 3.43327e-05
42 *288:38 *516:29 0
43 *288:68 *1152:B 0.000246141
44 *288:68 *1478:CLK 4.13249e-05
45 *288:68 *329:41 6.81237e-05
46 *288:68 *438:10 0.000159964
47 *288:68 *438:23 0.000150453
48 *288:68 *444:46 0.000148977
49 *288:68 *499:8 0
50 *288:68 *512:23 0.000698158
51 *288:68 *512:44 0.000202501
52 *288:68 *512:48 5.74616e-05
53 *288:68 *512:59 0.0001874
54 *288:76 *1386:A 0
55 *288:76 *1390:A 0
56 *288:76 *362:10 6.47516e-05
57 *288:76 *444:31 1.16578e-05
58 *288:76 *444:46 8.8266e-05
59 *288:100 *1252:A1 5.33085e-05
60 *288:100 *1385:A1 2.8185e-05
61 *288:100 *1456:CLK 0.000129697
62 *288:100 *1506:CLK 0.000225588
63 *288:100 *1580:A 0.000155444
64 *288:100 *333:91 0.000142597
65 *288:100 *333:98 0.000182968
66 *288:100 *363:14 3.72007e-05
67 *288:100 *422:66 7.41851e-05
68 *288:111 *1387:A1 2.747e-05
69 *288:111 *363:14 1.91597e-05
70 used[1] *1395:S 0.000161898
71 *1162:B *288:68 0.000224143
72 *1164:A *288:8 2.75229e-05
73 *1164:A *288:68 0
74 *1170:B *288:38 7.10593e-06
75 *1215:A2 *1393:S 9.47778e-05
76 *1221:B2 *1393:S 0
77 *1222:A1 *1393:S 8.33066e-06
78 *1231:A1 *1391:S 0
79 *1240:A1 *288:100 0.000134123
80 *1277:A *288:100 0
81 *1284:A *1391:S 0.000148185
82 *1284:A *288:68 0.000125494
83 *1284:A *288:76 0.000155131
84 *1321:A *288:38 0.000129998
85 *1462:RESET_B *288:38 1.13009e-05
86 *1476:RESET_B *288:38 9.27255e-06
87 *1478:RESET_B *288:38 5.16418e-05
88 *1481:D *288:100 8.70115e-05
89 *1504:D *1383:S 4.11071e-05
90 *1506:D *288:100 8.89101e-06
91 *1511:D *288:38 0.000104945
92 *37:6 *288:38 9.06678e-05
93 *152:72 *288:68 6.26426e-05
94 *158:12 *288:68 0.000556252
95 *158:102 *288:100 5.74699e-05
96 *167:10 *288:68 0
97 *167:38 *288:100 5.83121e-06
98 *167:84 *1383:S 0
99 *168:16 *288:68 9.24948e-05
100 *175:74 *1393:S 0.000593606
101 *219:20 *288:68 9.2741e-05
102 *219:20 *288:76 5.30673e-05
103 *244:8 *288:38 0.000416409
104 *244:21 *288:38 0
105 *244:112 *288:38 4.2801e-05
106 *245:85 *288:100 3.75953e-05
107 *245:85 *288:111 0.000633845
108 *245:102 *288:111 0.0006285
109 *268:26 *288:68 0.000224017
110 *268:101 *1383:S 0.000224679
111 *268:101 *1393:S 4.01578e-05
*RES
1 *1382:X *288:8 4.05 
2 *288:8 *288:38 36.96 
3 *288:38 *1395:S 12.01 
4 *288:38 *1397:S 2.395 
5 *288:8 *288:68 33.47 
6 *288:68 *288:76 8.87 
7 *288:76 *288:78 2 
8 *288:78 *288:100 34.37 
9 *288:100 *1387:S 2.215 
10 *288:100 *288:111 14.87 
11 *288:111 *1393:S 19.015 
12 *288:111 *1383:S 6.51 
13 *288:78 *1385:S 1.6 
14 *288:76 *1391:S 10.08 
15 *288:68 *1389:S 1.6 
*END

*D_NET *289 0.000483355
*CONN
*I *1384:A I *D sky130_fd_sc_hd__clkbuf_1
*I *1383:X O *D sky130_fd_sc_hd__mux2_1
*CAP
1 *1384:A 0.000175108
2 *1383:X 0.000175108
3 *1384:A *1260:B2 0
4 *1384:A *319:84 3.62197e-05
5 *1384:A *438:96 4.89295e-05
6 *1348:A *1384:A 4.79892e-05
*RES
1 *1383:X *1384:A 9.93 
*END

*D_NET *290 0.000522895
*CONN
*I *1386:A I *D sky130_fd_sc_hd__clkbuf_1
*I *1385:X O *D sky130_fd_sc_hd__mux2_1
*CAP
1 *1386:A 0.000261447
2 *1385:X 0.000261447
3 *1505:D *1386:A 0
4 *288:76 *1386:A 0
*RES
1 *1385:X *1386:A 11.73 
*END

*D_NET *291 0.000140504
*CONN
*I *1388:A I *D sky130_fd_sc_hd__clkbuf_1
*I *1387:X O *D sky130_fd_sc_hd__mux2_1
*CAP
1 *1388:A 7.02522e-05
2 *1387:X 7.02522e-05
*RES
1 *1387:X *1388:A 4.265 
*END

*D_NET *292 0.000133214
*CONN
*I *1390:A I *D sky130_fd_sc_hd__clkbuf_1
*I *1389:X O *D sky130_fd_sc_hd__mux2_1
*CAP
1 *1390:A 5.60528e-05
2 *1389:X 5.60528e-05
3 *219:20 *1390:A 2.11084e-05
4 *288:76 *1390:A 0
*RES
1 *1389:X *1390:A 4.265 
*END

*D_NET *293 0.000167259
*CONN
*I *1392:A I *D sky130_fd_sc_hd__clkbuf_1
*I *1391:X O *D sky130_fd_sc_hd__mux2_1
*CAP
1 *1392:A 5.9165e-05
2 *1391:X 5.9165e-05
3 *1392:A *455:25 4.89295e-05
*RES
1 *1391:X *1392:A 4.265 
*END

*D_NET *294 0.00166358
*CONN
*I *1394:A I *D sky130_fd_sc_hd__clkbuf_1
*I *1393:X O *D sky130_fd_sc_hd__mux2_1
*CAP
1 *1394:A 0.000381924
2 *1393:X 0.000381924
3 *1394:A *1544:A 8.52883e-05
4 *1394:A *1572:A 0.000181376
5 *1394:A *319:84 7.67552e-05
6 *1394:A *335:12 3.4222e-05
7 *1394:A *335:85 3.57846e-05
8 *1258:A1 *1394:A 0.000286109
9 *1509:D *1394:A 0.000114492
10 *172:53 *1394:A 8.57024e-05
*RES
1 *1393:X *1394:A 16.26 
*END

*D_NET *295 0.000424205
*CONN
*I *1396:A I *D sky130_fd_sc_hd__clkbuf_1
*I *1395:X O *D sky130_fd_sc_hd__mux2_1
*CAP
1 *1396:A 0.000110513
2 *1395:X 0.000110513
3 *1395:S *1396:A 0.000203178
*RES
1 *1395:X *1396:A 5.645 
*END

*D_NET *296 0.00078221
*CONN
*I *1398:A I *D sky130_fd_sc_hd__clkbuf_1
*I *1397:X O *D sky130_fd_sc_hd__mux2_1
*CAP
1 *1398:A 0.00033576
2 *1397:X 0.00033576
3 *1398:A *1644:A 0.000110691
4 *1462:D *1398:A 0
*RES
1 *1397:X *1398:A 11.7 
*END

*D_NET *297 0.00297312
*CONN
*I *1418:C I *D sky130_fd_sc_hd__and3b_1
*I *1436:B I *D sky130_fd_sc_hd__and3b_1
*I *1400:B I *D sky130_fd_sc_hd__and2_1
*I *1399:X O *D sky130_fd_sc_hd__and4_1
*CAP
1 *1418:C 0.000199628
2 *1436:B 1.77753e-05
3 *1400:B 1.8055e-05
4 *1399:X 0.000380524
5 *297:25 0.000369569
6 *297:14 0.000550744
7 *1418:C *1326:A 4.9968e-05
8 *1418:C *1401:A 0.00010978
9 *1418:C *1437:A 0.000163204
10 *1418:C *514:115 0.000133702
11 *297:14 *1399:B 4.14392e-05
12 *297:14 *1647:A 7.67036e-05
13 *297:14 *514:59 0.000289203
14 *297:14 *514:70 0.000105266
15 *297:14 *514:83 4.21314e-05
16 *297:25 *1401:A 0.000198939
17 *1399:C *297:14 3.83194e-05
18 *1399:D *297:14 2.00026e-05
19 *1400:A *1400:B 4.82863e-05
20 *1400:A *297:25 1.52249e-05
21 *140:8 *297:14 9.23819e-05
22 *140:21 *297:14 1.22676e-05
23 *258:40 *1418:C 0
*RES
1 *1399:X *297:14 13.745 
2 *297:14 *1400:B 2.05 
3 *297:14 *297:25 2.79 
4 *297:25 *1436:B 1.96 
5 *297:25 *1418:C 9.35 
*END

*D_NET *298 0.00149147
*CONN
*I *1401:A I *D sky130_fd_sc_hd__clkbuf_4
*I *1400:X O *D sky130_fd_sc_hd__and2_1
*CAP
1 *1401:A 0.00024714
2 *1400:X 0.00024714
3 *1401:A *1326:A 4.66108e-05
4 *1401:A *1418:B 2.30292e-05
5 *1401:A *1419:A 2.75145e-05
6 *1401:A *1436:A_N 4.66108e-05
7 *1401:A *1437:A 0.000138963
8 *1401:A *299:14 2.24423e-05
9 *1401:A *514:115 6.38806e-05
10 *1401:A *515:102 9.32633e-05
11 *1400:A *1401:A 8.69098e-05
12 *1418:C *1401:A 0.00010978
13 *258:40 *1401:A 0.000139245
14 *278:8 *1401:A 0
15 *297:25 *1401:A 0.000198939
*RES
1 *1400:X *1401:A 14.73 
*END

*D_NET *299 0.0255286
*CONN
*I *1408:S I *D sky130_fd_sc_hd__mux2_1
*I *1402:S I *D sky130_fd_sc_hd__mux2_1
*I *1412:S I *D sky130_fd_sc_hd__mux2_1
*I *1416:S I *D sky130_fd_sc_hd__mux2_1
*I *1414:S I *D sky130_fd_sc_hd__mux2_1
*I *1406:S I *D sky130_fd_sc_hd__mux2_1
*I *1404:S I *D sky130_fd_sc_hd__mux2_1
*I *1410:S I *D sky130_fd_sc_hd__mux2_1
*I *1401:X O *D sky130_fd_sc_hd__clkbuf_4
*CAP
1 *1408:S 0
2 *1402:S 0.000206212
3 *1412:S 3.87981e-05
4 *1416:S 0.000416851
5 *1414:S 0
6 *1406:S 2.21004e-05
7 *1404:S 0.000163391
8 *1410:S 0.000128788
9 *1401:X 0.000790601
10 *299:135 0.00105979
11 *299:109 0.00164193
12 *299:97 0.00185175
13 *299:80 0.0014958
14 *299:46 0.0013123
15 *299:22 0.00265129
16 *299:14 0.00163342
17 *1402:S *401:36 9.09788e-06
18 *1402:S *401:44 0.000123606
19 *1404:S *1226:A 2.7881e-05
20 *1404:S *1253:A 0
21 *1404:S *1410:A1 0
22 *1404:S *1598:A 5.98203e-05
23 *1404:S *334:21 0.000200419
24 *1404:S *334:86 0.000152127
25 *1404:S *422:14 2.97004e-06
26 *1410:S *1410:A0 8.8266e-05
27 *1410:S *1598:A 8.65905e-05
28 *1412:S *466:43 0.000160314
29 *1416:S *1414:A0 0.000119242
30 *1416:S *1416:A0 6.76978e-05
31 *1416:S *413:20 0
32 *1416:S *477:66 2.20014e-05
33 *1416:S *477:83 3.04704e-05
34 *299:14 *1426:A1 0.000105176
35 *299:22 *1387:A0 9.11724e-05
36 *299:22 *1467:CLK 2.53191e-06
37 *299:22 *1490:CLK 0.000158628
38 *299:22 *1523:CLK 0.000168922
39 *299:22 *309:23 0
40 *299:22 *335:40 0.00010683
41 *299:22 *336:12 3.98952e-05
42 *299:22 *340:14 7.23602e-05
43 *299:22 *438:75 0
44 *299:22 *444:81 0.000139238
45 *299:22 *444:83 9.50342e-06
46 *299:46 *1428:A0 8.40269e-05
47 *299:46 *1428:S 0.000128859
48 *299:46 *1429:A 9.80731e-05
49 *299:46 *1467:CLK 1.7635e-05
50 *299:46 *1521:CLK 4.82863e-05
51 *299:46 *1598:A 4.66108e-05
52 *299:46 *378:14 0.000160488
53 *299:46 *455:74 0.000120655
54 *299:80 *1407:A 8.64421e-05
55 *299:80 *1425:A 0.000241669
56 *299:80 *1467:CLK 1.02024e-05
57 *299:80 *309:37 0.000749235
58 *299:80 *336:55 5.69898e-06
59 *299:97 *309:37 0.000607426
60 *299:97 *319:84 5.4317e-05
61 *299:109 *1430:A0 7.26551e-05
62 *299:109 *1480:CLK 0.000133075
63 *299:109 *1485:CLK 0.000156377
64 *299:109 *1570:A 0
65 *299:109 *332:86 0.000175901
66 *299:109 *466:35 0
67 *299:135 *1579:A 0.00016031
68 *299:135 *332:86 0.000141994
69 *299:135 *477:83 2.24838e-05
70 *1198:A1 *299:135 0.0001468
71 *1209:A2 *299:135 2.76356e-05
72 *1218:A2 *1412:S 7.08554e-05
73 *1218:A2 *299:109 6.84877e-05
74 *1236:A2 *299:14 0.000128537
75 *1236:A2 *299:22 0
76 *1240:A1 *299:22 0
77 *1240:A1 *299:80 0
78 *1241:A *299:46 4.66108e-05
79 *1245:A2 *299:80 0
80 *1247:B1 *299:80 7.45675e-05
81 *1247:B1 *299:97 2.11084e-05
82 *1257:B2 *299:22 0
83 *1257:B2 *299:46 4.01535e-05
84 *1258:S *299:109 0
85 *1266:B1 *299:109 6.02123e-05
86 *1291:A *299:109 2.14609e-05
87 *1401:A *299:14 2.24423e-05
88 *1463:D *299:135 2.69153e-05
89 *1521:D *299:46 1.05337e-05
90 *1522:D *299:80 9.47661e-05
91 *1537:A *299:22 0
92 *160:70 *299:14 6.04161e-05
93 *160:113 *299:135 0.000203109
94 *160:150 *299:109 0.00134444
95 *160:177 *299:80 0.000659107
96 *160:177 *299:97 0.000208356
97 *163:70 *299:22 2.04531e-05
98 *163:70 *299:46 4.80285e-05
99 *163:86 *299:22 5.12942e-05
100 *165:139 *299:135 5.18694e-05
101 *166:10 *299:14 8.08153e-06
102 *166:120 *299:109 9.44932e-05
103 *176:24 *299:14 3.22029e-05
104 *219:20 *299:22 0.00103846
105 *254:82 *299:46 8.51322e-05
106 *254:109 *1402:S 0.000108809
107 *254:109 *299:97 0.000281367
108 *254:129 *1416:S 0.000517716
109 *254:129 *299:135 0
110 *258:40 *299:14 0
111 *258:56 *299:22 1.94636e-05
112 *258:110 *299:109 1.67879e-05
113 *278:8 *299:14 5.56629e-05
114 *278:53 *299:14 0.000843472
115 *278:61 *299:14 0.000138613
*RES
1 *1401:X *299:14 22.55 
2 *299:14 *299:22 23.57 
3 *299:22 *299:46 22.71 
4 *299:46 *1410:S 4.12 
5 *299:46 *1404:S 9.785 
6 *299:22 *299:80 10.711 
7 *299:80 *1406:S 1.96 
8 *299:80 *299:97 5.36197 
9 *299:97 *299:109 23.6975 
10 *299:109 *299:135 18.5475 
11 *299:135 *1414:S 1.6 
12 *299:135 *1416:S 14.885 
13 *299:109 *1412:S 5.085 
14 *299:97 *1402:S 5.93683 
15 *299:14 *1408:S 1.6 
*END

*D_NET *300 0.000266421
*CONN
*I *1403:A I *D sky130_fd_sc_hd__clkbuf_1
*I *1402:X O *D sky130_fd_sc_hd__mux2_1
*CAP
1 *1403:A 6.85234e-05
2 *1402:X 6.85234e-05
3 *1403:A *377:10 0
4 *1263:A2 *1403:A 6.64979e-05
5 *1266:B2 *1403:A 6.28765e-05
*RES
1 *1402:X *1403:A 9.09 
*END

*D_NET *301 0.000846198
*CONN
*I *1405:A I *D sky130_fd_sc_hd__clkbuf_1
*I *1404:X O *D sky130_fd_sc_hd__mux2_1
*CAP
1 *1405:A 0.000394138
2 *1404:X 0.000394138
3 *1405:A *370:10 1.7386e-05
4 *1284:A *1405:A 0
5 *1513:D *1405:A 4.05358e-05
*RES
1 *1404:X *1405:A 12.135 
*END

*D_NET *302 0.00121843
*CONN
*I *1407:A I *D sky130_fd_sc_hd__clkbuf_1
*I *1406:X O *D sky130_fd_sc_hd__mux2_1
*CAP
1 *1407:A 0.000358278
2 *1406:X 0.000358278
3 *1407:A *1406:A0 8.7829e-05
4 *1407:A *1424:A0 0
5 *1407:A *336:55 0
6 *1407:A *336:70 0.00011099
7 *1407:A *336:87 0.000168842
8 *175:78 *1407:A 4.77719e-05
9 *299:80 *1407:A 8.64421e-05
*RES
1 *1406:X *1407:A 13.905 
*END

*D_NET *303 0.000910075
*CONN
*I *1409:A I *D sky130_fd_sc_hd__clkbuf_1
*I *1408:X O *D sky130_fd_sc_hd__mux2_1
*CAP
1 *1409:A 0.000357503
2 *1408:X 0.000357503
3 *1409:A *372:12 0
4 *1336:A *1409:A 0.000144369
5 *1483:D *1409:A 5.06989e-05
*RES
1 *1408:X *1409:A 12.96 
*END

*D_NET *304 0.000140366
*CONN
*I *1411:A I *D sky130_fd_sc_hd__clkbuf_1
*I *1410:X O *D sky130_fd_sc_hd__mux2_1
*CAP
1 *1411:A 7.0183e-05
2 *1410:X 7.0183e-05
*RES
1 *1410:X *1411:A 4.265 
*END

*D_NET *305 0.00136284
*CONN
*I *1413:A I *D sky130_fd_sc_hd__clkbuf_1
*I *1412:X O *D sky130_fd_sc_hd__mux2_1
*CAP
1 *1413:A 0.000360062
2 *1412:X 0.000360062
3 *1413:A *1412:A0 7.23602e-05
4 *1413:A *1412:A1 4.9253e-06
5 *1413:A *425:28 0.000123592
6 *1413:A *466:35 0.000302592
7 *1218:A2 *1413:A 0
8 *1517:D *1413:A 0.000139245
*RES
1 *1412:X *1413:A 13.845 
*END

*D_NET *306 0.000970257
*CONN
*I *1415:A I *D sky130_fd_sc_hd__clkbuf_1
*I *1414:X O *D sky130_fd_sc_hd__mux2_1
*CAP
1 *1415:A 0.00024415
2 *1414:X 0.00024415
3 *1415:A *1208:A 4.43544e-05
4 *1415:A *1270:A1 0
5 *1415:A *1270:A2 4.28112e-06
6 *1415:A *1414:A0 2.88357e-05
7 *1415:A *1609:A 0.000101706
8 *1415:A *413:20 0.000263803
9 *1415:A *431:16 3.89775e-05
*RES
1 *1414:X *1415:A 12.36 
*END

*D_NET *307 0.000388482
*CONN
*I *1417:A I *D sky130_fd_sc_hd__clkbuf_1
*I *1416:X O *D sky130_fd_sc_hd__mux2_1
*CAP
1 *1417:A 0.000130996
2 *1416:X 0.000130996
3 *1417:A *1519:CLK 0.000115614
4 *1212:B2 *1417:A 0
5 *1519:D *1417:A 1.08758e-05
*RES
1 *1416:X *1417:A 9.63 
*END

*D_NET *308 0.000673413
*CONN
*I *1419:A I *D sky130_fd_sc_hd__clkbuf_4
*I *1418:X O *D sky130_fd_sc_hd__and3b_1
*CAP
1 *1419:A 0.000150798
2 *1418:X 0.000150798
3 *1419:A *1326:B 7.36562e-05
4 *1419:A *1444:S 0
5 *1401:A *1419:A 2.75145e-05
6 *258:40 *1419:A 0.000270647
*RES
1 *1418:X *1419:A 10.815 
*END

*D_NET *309 0.0205468
*CONN
*I *1424:S I *D sky130_fd_sc_hd__mux2_1
*I *1422:S I *D sky130_fd_sc_hd__mux2_1
*I *1428:S I *D sky130_fd_sc_hd__mux2_1
*I *1430:S I *D sky130_fd_sc_hd__mux2_1
*I *1432:S I *D sky130_fd_sc_hd__mux2_1
*I *1434:S I *D sky130_fd_sc_hd__mux2_1
*I *1420:S I *D sky130_fd_sc_hd__mux2_1
*I *1426:S I *D sky130_fd_sc_hd__mux2_1
*I *1419:X O *D sky130_fd_sc_hd__clkbuf_4
*CAP
1 *1424:S 0.000202048
2 *1422:S 3.36462e-05
3 *1428:S 0.000203575
4 *1430:S 0
5 *1432:S 1.00322e-05
6 *1434:S 0.000525752
7 *1420:S 1.42366e-05
8 *1426:S 0
9 *1419:X 0.000424167
10 *309:95 0.000793978
11 *309:89 0.00086648
12 *309:56 0.000834785
13 *309:54 0.001052
14 *309:37 0.00157865
15 *309:23 0.00198619
16 *309:10 0.00149127
17 *1422:S *1422:A1 5.4155e-06
18 *1424:S *1638:A 6.72368e-05
19 *1428:S *378:14 3.23391e-05
20 *1428:S *422:50 0
21 *1428:S *455:74 4.66108e-05
22 *1432:S *1432:A0 4.77807e-05
23 *1432:S *477:83 1.54665e-05
24 *1432:S *477:100 6.72833e-06
25 *1434:S *384:10 0
26 *1434:S *477:83 2.59285e-05
27 *309:10 *1444:A0 7.03276e-05
28 *309:10 *1444:A1 0
29 *309:10 *1444:S 0
30 *309:10 *1535:CLK 3.00381e-05
31 *309:10 *444:83 0
32 *309:23 *1242:A1 0.000194505
33 *309:23 *1242:B2 2.20522e-05
34 *309:23 *1523:CLK 0
35 *309:23 *1577:A 6.02202e-05
36 *309:23 *335:40 0
37 *309:37 *401:54 1.87674e-05
38 *309:54 *1290:A1 0.000131017
39 *309:54 *1300:A0 0.000138544
40 *309:54 *401:44 1.19928e-05
41 *309:95 *1422:A1 5.12969e-06
42 *309:95 *1423:A 9.70845e-05
43 *309:95 *422:92 2.76356e-05
44 *309:95 *422:105 0.000413961
45 *1202:A2 *1434:S 0
46 *1203:B2 *1434:S 0.000297754
47 *1211:C1 *309:56 5.87002e-05
48 *1220:B1 *309:54 0.000373551
49 *1220:B1 *309:56 9.50342e-06
50 *1236:A2 *309:10 0.000117832
51 *1236:A2 *309:23 2.14129e-05
52 *1239:B2 *309:23 0.000117832
53 *1240:A1 *309:23 4.03077e-06
54 *1240:A1 *309:89 0
55 *1245:B1 *309:37 7.22354e-05
56 *1245:B1 *309:54 7.35729e-05
57 *1254:A1 *1428:S 2.92496e-05
58 *1254:A1 *309:95 4.66108e-05
59 *1257:B2 *1428:S 0
60 *1261:B1 *309:54 4.24908e-05
61 *1266:B2 *309:54 5.99519e-05
62 *1372:A *309:10 3.89366e-05
63 *1454:D *309:54 0.000310738
64 *1467:D *309:95 9.52646e-05
65 *1467:RESET_B *309:89 0
66 *1523:D *309:23 0.000126751
67 *1526:D *309:56 0
68 *1527:D *1434:S 0
69 *160:45 *309:10 0
70 *160:150 *309:54 0
71 *160:177 *309:37 0.000145005
72 *160:177 *309:95 0.00013829
73 *165:90 *309:54 0.000875368
74 *165:171 *1422:S 0
75 *166:120 *309:54 0.000437739
76 *172:26 *309:10 2.87133e-05
77 *172:66 *309:54 8.08153e-06
78 *172:66 *309:56 0.000150487
79 *245:85 *309:23 4.75977e-05
80 *254:82 *1428:S 0.000151458
81 *254:109 *309:37 0.00143848
82 *258:40 *309:10 0.000789561
83 *258:40 *309:23 0.000159964
84 *278:61 *309:23 0.00116263
85 *278:61 *309:89 0.00014589
86 *299:22 *309:23 0
87 *299:46 *1428:S 0.000128859
88 *299:80 *309:37 0.000749235
89 *299:97 *309:37 0.000607426
*RES
1 *1419:X *309:10 13.59 
2 *309:10 *1426:S 3.6 
3 *309:10 *309:23 22.1325 
4 *309:23 *309:37 7.8223 
5 *309:37 *1420:S 1.96 
6 *309:37 *309:54 24.29 
7 *309:54 *309:56 5.97 
8 *309:56 *1434:S 12.315 
9 *309:56 *1432:S 4.05 
10 *309:54 *1430:S 3.6 
11 *309:23 *309:89 4.1225 
12 *309:89 *309:95 10.83 
13 *309:95 *1428:S 10.115 
14 *309:95 *1422:S 2.215 
15 *309:89 *1424:S 4.81 
*END

*D_NET *310 0.000620044
*CONN
*I *1421:A I *D sky130_fd_sc_hd__clkbuf_1
*I *1420:X O *D sky130_fd_sc_hd__mux2_1
*CAP
1 *1421:A 0.00021984
2 *1420:X 0.00021984
3 *1421:A *1420:A0 0
4 *1421:A *377:10 0
5 *1245:B1 *1421:A 3.00381e-05
6 *1265:B1 *1421:A 8.66976e-06
7 *1520:D *1421:A 7.63204e-05
8 *175:74 *1421:A 6.53365e-05
*RES
1 *1420:X *1421:A 11.325 
*END

*D_NET *311 0.000239259
*CONN
*I *1423:A I *D sky130_fd_sc_hd__clkbuf_1
*I *1422:X O *D sky130_fd_sc_hd__mux2_1
*CAP
1 *1423:A 7.10873e-05
2 *1422:X 7.10873e-05
3 *1467:D *1423:A 0
4 *309:95 *1423:A 9.70845e-05
*RES
1 *1422:X *1423:A 4.61 
*END

*D_NET *312 0.000897239
*CONN
*I *1425:A I *D sky130_fd_sc_hd__clkbuf_1
*I *1424:X O *D sky130_fd_sc_hd__mux2_1
*CAP
1 *1425:A 0.000179589
2 *1424:X 0.000179589
3 *1425:A *1596:A 0.000198344
4 *1247:B1 *1425:A 6.12481e-05
5 *1247:C1 *1425:A 3.67993e-05
6 *1522:D *1425:A 0
7 *299:80 *1425:A 0.000241669
*RES
1 *1424:X *1425:A 11.895 
*END

*D_NET *313 0.00107854
*CONN
*I *1427:A I *D sky130_fd_sc_hd__clkbuf_1
*I *1426:X O *D sky130_fd_sc_hd__mux2_1
*CAP
1 *1427:A 0.000180124
2 *1426:X 0.000180124
3 *1427:A *335:27 5.05437e-05
4 *166:10 *1427:A 0.000473655
5 *278:61 *1427:A 0.000194092
*RES
1 *1426:X *1427:A 13.455 
*END

*D_NET *314 0.000232982
*CONN
*I *1429:A I *D sky130_fd_sc_hd__clkbuf_1
*I *1428:X O *D sky130_fd_sc_hd__mux2_1
*CAP
1 *1429:A 6.74542e-05
2 *1428:X 6.74542e-05
3 *299:46 *1429:A 9.80731e-05
*RES
1 *1428:X *1429:A 4.61 
*END

*D_NET *315 0.000701889
*CONN
*I *1431:A I *D sky130_fd_sc_hd__clkbuf_1
*I *1430:X O *D sky130_fd_sc_hd__mux2_1
*CAP
1 *1431:A 0.00019847
2 *1430:X 0.00019847
3 *1431:A *1219:A1 0
4 *1393:S *1431:A 0
5 *1525:D *1431:A 8.71001e-05
6 *165:82 *1431:A 4.99619e-05
7 *165:90 *1431:A 0.000167886
8 *175:74 *1431:A 0
*RES
1 *1430:X *1431:A 11.325 
*END

*D_NET *316 0.000158343
*CONN
*I *1433:A I *D sky130_fd_sc_hd__clkbuf_1
*I *1432:X O *D sky130_fd_sc_hd__mux2_1
*CAP
1 *1433:A 4.59904e-05
2 *1432:X 4.59904e-05
3 *1433:A *477:100 6.63621e-05
*RES
1 *1432:X *1433:A 4.265 
*END

*D_NET *317 0.000555738
*CONN
*I *1435:A I *D sky130_fd_sc_hd__clkbuf_1
*I *1434:X O *D sky130_fd_sc_hd__mux2_1
*CAP
1 *1435:A 0.000138377
2 *1434:X 0.000138377
3 *1435:A *488:32 4.82919e-05
4 *1203:B1 *1435:A 0.000186667
5 *1527:D *1435:A 4.40241e-05
*RES
1 *1434:X *1435:A 6.44 
*END

*D_NET *318 0.00156867
*CONN
*I *1437:A I *D sky130_fd_sc_hd__clkbuf_4
*I *1436:X O *D sky130_fd_sc_hd__and3b_1
*CAP
1 *1437:A 0.000419251
2 *1436:X 0.000419251
3 *1437:A *1326:A 3.74161e-05
4 *1437:A *515:102 8.01231e-05
5 *1380:A *1437:A 0
6 *1401:A *1437:A 0.000138963
7 *1418:C *1437:A 0.000163204
8 *163:197 *1437:A 0.000310458
9 *278:8 *1437:A 0
10 *278:53 *1437:A 0
*RES
1 *1436:X *1437:A 16.74 
*END

*D_NET *319 0.018401
*CONN
*I *1438:S I *D sky130_fd_sc_hd__mux2_1
*I *1442:S I *D sky130_fd_sc_hd__mux2_1
*I *1440:S I *D sky130_fd_sc_hd__mux2_1
*I *1446:S I *D sky130_fd_sc_hd__mux2_1
*I *1448:S I *D sky130_fd_sc_hd__mux2_1
*I *1450:S I *D sky130_fd_sc_hd__mux2_1
*I *1452:S I *D sky130_fd_sc_hd__mux2_1
*I *1444:S I *D sky130_fd_sc_hd__mux2_1
*I *1437:X O *D sky130_fd_sc_hd__clkbuf_4
*CAP
1 *1438:S 6.27734e-05
2 *1442:S 0
3 *1440:S 0
4 *1446:S 0.000528877
5 *1448:S 9.74777e-05
6 *1450:S 0
7 *1452:S 0
8 *1444:S 0.000761074
9 *1437:X 0
10 *319:106 0.000680489
11 *319:104 0.00132029
12 *319:84 0.00273932
13 *319:47 0.00169327
14 *319:38 0.000314377
15 *319:27 0.000610958
16 *319:4 0.00114558
17 *1438:S *1575:A 0.000308018
18 *1444:S *1444:A1 5.31158e-06
19 *1444:S *1652:A 0.000122323
20 *1444:S *429:25 0
21 *1446:S *1228:B2 7.1624e-05
22 *1446:S *1441:A 9.84618e-05
23 *1446:S *334:104 0.000530165
24 *1446:S *357:12 4.77807e-05
25 *1446:S *425:55 0.000138106
26 *1446:S *437:122 3.86987e-05
27 *1448:S *1448:A1 8.42857e-05
28 *319:27 *1379:A0 8.51879e-05
29 *319:27 *1379:A1 8.08349e-05
30 *319:27 *1452:A0 7.08554e-05
31 *319:27 *328:36 0.000137571
32 *319:27 *392:8 0.000158536
33 *319:38 *1452:A0 4.40028e-05
34 *319:38 *332:10 9.42551e-05
35 *319:38 *332:29 0.000195766
36 *319:38 *392:8 0.000234349
37 *319:38 *488:108 5.6421e-05
38 *319:47 *332:29 4.91032e-05
39 *319:47 *332:42 0.000165239
40 *319:84 *1264:B2 0.000111315
41 *319:84 *1383:A1 6.37323e-05
42 *319:84 *1406:A0 5.80941e-05
43 *319:84 *1406:A1 0.000223576
44 *319:84 *1572:A 0
45 *319:84 *1575:A 5.34565e-05
46 *319:84 *1608:A 0
47 *319:84 *1638:A 0.000576019
48 *319:84 *332:42 0.00018239
49 *319:84 *332:74 0.000149881
50 *319:84 *335:85 0
51 *319:84 *336:55 0
52 *319:84 *339:14 9.48444e-05
53 *319:104 *1442:A0 4.90291e-05
54 *319:104 *1442:A1 5.58912e-05
55 *319:104 *1498:CLK 9.37898e-05
56 *319:104 *336:97 1.77595e-05
57 *319:104 *336:99 0.000185727
58 *1245:A2 *319:84 0
59 *1351:S *319:84 6.28498e-05
60 *1373:S *1446:S 0.000402498
61 *1373:S *319:106 4.77769e-05
62 *1376:A *1448:S 1.08758e-05
63 *1384:A *319:84 3.62197e-05
64 *1393:S *319:84 8.33066e-06
65 *1394:A *319:84 7.67552e-05
66 *1419:A *1444:S 0
67 *1488:D *319:84 0
68 *1496:D *1438:S 0.000345539
69 *1496:D *319:84 7.1624e-05
70 *1496:D *319:104 4.77807e-05
71 *1502:D *319:38 0.000109284
72 *1509:D *319:84 6.28687e-05
73 *1528:D *319:104 4.72976e-05
74 *176:77 *319:84 0
75 *258:40 *1444:S 0
76 *268:86 *319:38 0.000487056
77 *268:86 *319:47 0.000207432
78 *268:86 *319:84 0.000477519
79 *268:101 *319:84 0.000898157
80 *278:20 *1444:S 0.000111302
81 *278:20 *319:27 0.000148647
82 *299:97 *319:84 5.4317e-05
83 *309:10 *1444:S 0
*RES
1 *1437:X *319:4 1.6 
2 *319:4 *1444:S 15.68 
3 *319:4 *319:27 11.02 
4 *319:27 *1452:S 1.6 
5 *319:27 *319:38 10.145 
6 *319:38 *1450:S 3.6 
7 *319:38 *319:47 2.655 
8 *319:47 *1448:S 5.445 
9 *319:47 *319:84 41.505 
10 *319:84 *319:104 16.38 
11 *319:104 *319:106 2.52 
12 *319:106 *1446:S 17.735 
13 *319:106 *1440:S 1.6 
14 *319:104 *1442:S 1.6 
15 *319:84 *1438:S 4.81 
*END

*D_NET *320 0.000946178
*CONN
*I *1439:A I *D sky130_fd_sc_hd__clkbuf_1
*I *1438:X O *D sky130_fd_sc_hd__mux2_1
*CAP
1 *1439:A 0.000264759
2 *1438:X 0.000264759
3 *1439:A *1438:A1 0
4 *1439:A *1638:A 7.28658e-05
5 *1365:S *1439:A 0.000199309
6 *1496:D *1439:A 0.00012398
7 *176:87 *1439:A 2.05056e-05
*RES
1 *1438:X *1439:A 12.15 
*END

*D_NET *321 0.000224121
*CONN
*I *1441:A I *D sky130_fd_sc_hd__clkbuf_1
*I *1440:X O *D sky130_fd_sc_hd__mux2_1
*CAP
1 *1441:A 6.28295e-05
2 *1440:X 6.28295e-05
3 *1446:S *1441:A 9.84618e-05
*RES
1 *1440:X *1441:A 4.61 
*END

*D_NET *322 0.000598096
*CONN
*I *1443:A I *D sky130_fd_sc_hd__clkbuf_1
*I *1442:X O *D sky130_fd_sc_hd__mux2_1
*CAP
1 *1443:A 0.000242522
2 *1442:X 0.000242522
3 *1443:A *1255:B2 4.82919e-05
4 *1443:A *1442:A0 0
5 *1530:D *1443:A 6.47594e-05
*RES
1 *1442:X *1443:A 11.625 
*END

*D_NET *323 0.000525085
*CONN
*I *1445:A I *D sky130_fd_sc_hd__clkbuf_1
*I *1444:X O *D sky130_fd_sc_hd__mux2_1
*CAP
1 *1445:A 0.000219425
2 *1444:X 0.000219425
3 *1445:A *1444:A1 0
4 *1445:A *1531:CLK 0
5 *1531:D *1445:A 8.62352e-05
*RES
1 *1444:X *1445:A 10.875 
*END

*D_NET *324 0.000319911
*CONN
*I *1447:A I *D sky130_fd_sc_hd__clkbuf_1
*I *1446:X O *D sky130_fd_sc_hd__mux2_1
*CAP
1 *1447:A 0.000159955
2 *1446:X 0.000159955
*RES
1 *1446:X *1447:A 5.645 
*END

*D_NET *325 0.000178443
*CONN
*I *1449:A I *D sky130_fd_sc_hd__clkbuf_1
*I *1448:X O *D sky130_fd_sc_hd__mux2_1
*CAP
1 *1449:A 8.92216e-05
2 *1448:X 8.92216e-05
*RES
1 *1448:X *1449:A 4.61 
*END

*D_NET *326 0.000894681
*CONN
*I *1451:A I *D sky130_fd_sc_hd__clkbuf_1
*I *1450:X O *D sky130_fd_sc_hd__mux2_1
*CAP
1 *1451:A 0.00016139
2 *1450:X 0.00016139
3 *1451:A *1210:B2 8.35106e-05
4 *1211:C1 *1451:A 4.77757e-05
5 *165:63 *1451:A 0.000264333
6 *166:76 *1451:A 1.94238e-05
7 *175:33 *1451:A 0.000156858
*RES
1 *1450:X *1451:A 11.775 
*END

*D_NET *327 0.00112721
*CONN
*I *1453:A I *D sky130_fd_sc_hd__clkbuf_1
*I *1452:X O *D sky130_fd_sc_hd__mux2_1
*CAP
1 *1453:A 0.000413393
2 *1452:X 0.000413393
3 *1453:A *1535:CLK 0.000124895
4 *1453:A *392:8 2.86975e-05
5 *1535:D *1453:A 0.000146835
*RES
1 *1452:X *1453:A 10.475 
*END

*D_NET *328 0.0216233
*CONN
*I *1545:A I *D sky130_fd_sc_hd__clkbuf_16
*I *1539:A I *D sky130_fd_sc_hd__clkbuf_16
*I *1538:A I *D sky130_fd_sc_hd__clkbuf_16
*I *1543:A I *D sky130_fd_sc_hd__clkbuf_16
*I *1542:A I *D sky130_fd_sc_hd__clkbuf_16
*I *1544:A I *D sky130_fd_sc_hd__clkbuf_16
*I *1541:A I *D sky130_fd_sc_hd__clkbuf_16
*I *1540:A I *D sky130_fd_sc_hd__clkbuf_16
*I *1537:X O *D sky130_fd_sc_hd__clkbuf_16
*CAP
1 *1545:A 0.000457319
2 *1539:A 0
3 *1538:A 0.000166097
4 *1543:A 0.000263954
5 *1542:A 0
6 *1544:A 0.000186808
7 *1541:A 3.02595e-05
8 *1540:A 0.000521394
9 *1537:X 6.76993e-05
10 *328:113 0.00176657
11 *328:83 0.000397084
12 *328:79 0.00349651
13 *328:75 0.00224608
14 *328:36 0.00270591
15 *328:20 0.00282077
16 *328:10 0.000573254
17 *1538:A *1153:B 0.000154116
18 *1538:A *511:10 8.7152e-06
19 *1540:A *1194:A1 0
20 *1540:A *1379:A0 0.000152209
21 *1540:A *1379:A1 1.59888e-05
22 *1540:A *1503:CLK 0.000357555
23 *1541:A *1379:A0 4.66108e-05
24 *1543:A *422:50 0.000534636
25 *1543:A *425:55 8.38208e-05
26 *1545:A *1243:A1 0.000237205
27 *1545:A *1651:A 0.000342011
28 *1545:A *336:34 0.000304474
29 *328:10 *1651:A 5.65627e-05
30 *328:10 *425:28 5.05521e-05
31 *328:20 *335:16 0.000175862
32 *328:20 *335:27 6.78179e-05
33 *328:36 *1270:A1 1.59675e-05
34 *328:36 *1379:A0 2.92496e-05
35 *328:36 *1379:A1 1.60658e-05
36 *328:75 *1651:A 4.73252e-05
37 *328:83 *1292:A0 0.000182707
38 *328:83 *422:50 0.000135166
39 *328:83 *425:55 9.94631e-05
40 *328:113 *499:44 1.8608e-05
41 *328:113 *511:10 0.000118576
42 *1156:B *1538:A 2.42236e-05
43 *1173:B1 *1538:A 0.00015266
44 *1230:B2 *1543:A 0.000174146
45 *1238:C1 *328:10 8.53113e-06
46 *1239:B2 *328:10 8.49205e-05
47 *1243:A2 *1545:A 1.92979e-05
48 *1243:B1 *1545:A 5.03953e-05
49 *1248:A2 *1545:A 0.000343835
50 *1248:B2 *1545:A 0.000112123
51 *1277:A *1543:A 0
52 *1277:A *328:83 0
53 *1281:A2 *1538:A 0
54 *1281:A2 *328:113 0
55 *1298:S *1543:A 0.000111293
56 *1334:A *1545:A 0.000218084
57 *1380:A *1540:A 2.01541e-05
58 *1394:A *1544:A 8.52883e-05
59 *1482:D *1545:A 0.000304474
60 *1484:D *1543:A 4.75576e-05
61 *1493:D *328:20 5.20335e-05
62 *1503:D *1540:A 3.59997e-05
63 *1537:A *328:79 0
64 *1537:A *328:113 1.68004e-05
65 *142:116 *328:113 0.00012369
66 *154:10 *1538:A 0.000162325
67 *165:63 *328:36 5.40483e-06
68 *166:10 *1545:A 1.45569e-05
69 *166:10 *328:10 6.28843e-05
70 *166:10 *328:75 4.366e-05
71 *166:21 *1545:A 3.67779e-05
72 *167:136 *1540:A 9.82856e-06
73 *172:98 *1544:A 0
74 *172:98 *328:20 0
75 *238:10 *1538:A 0
76 *245:20 *1538:A 0
77 *245:33 *328:113 0.000130304
78 *268:86 *328:36 0
79 *268:101 *1544:A 0
80 *268:101 *328:20 0
81 *278:31 *1541:A 8.35106e-05
82 *319:27 *328:36 0.000137571
*RES
1 *1537:X *328:10 5.775 
2 *328:10 *328:20 10.3825 
3 *328:20 *328:36 8.04877 
4 *328:36 *1540:A 12.915 
5 *328:36 *1541:A 4.395 
6 *328:20 *1544:A 6.6675 
7 *328:10 *328:75 0.9975 
8 *328:75 *328:79 3.3348 
9 *328:79 *328:83 4.3025 
10 *328:83 *1542:A 3.6 
11 *328:83 *1543:A 11.61 
12 *328:79 *328:113 5.69663 
13 *328:113 *1538:A 7.785 
14 *328:113 *1539:A 3.6 
15 *328:75 *1545:A 18.4275 
*END

*D_NET *329 0.0163058
*CONN
*I *1473:CLK I *D sky130_fd_sc_hd__dfrtp_1
*I *1535:CLK I *D sky130_fd_sc_hd__dfxtp_1
*I *1472:CLK I *D sky130_fd_sc_hd__dfrtp_1
*I *1474:CLK I *D sky130_fd_sc_hd__dfrtp_4
*I *1475:CLK I *D sky130_fd_sc_hd__dfrtp_2
*I *1476:CLK I *D sky130_fd_sc_hd__dfrtp_4
*I *1477:CLK I *D sky130_fd_sc_hd__dfrtp_4
*I *1478:CLK I *D sky130_fd_sc_hd__dfrtp_4
*I *1479:CLK I *D sky130_fd_sc_hd__dfrtp_2
*I *1538:X O *D sky130_fd_sc_hd__clkbuf_16
*CAP
1 *1473:CLK 0.000425995
2 *1535:CLK 0.00101167
3 *1472:CLK 2.49726e-05
4 *1474:CLK 0.000746909
5 *1475:CLK 0
6 *1476:CLK 0.000500176
7 *1477:CLK 0
8 *1478:CLK 0.000580257
9 *1479:CLK 0.000537986
10 *1538:X 0
11 *329:105 0.00155216
12 *329:62 0.000703298
13 *329:41 0.00123352
14 *329:24 0.00128733
15 *329:18 0.000539109
16 *329:16 0.00106148
17 *329:14 0.000761648
18 *329:6 0.000776512
19 *1473:CLK *1182:A2 4.80058e-05
20 *1473:CLK *437:42 8.6087e-05
21 *1476:CLK *515:14 0.000197826
22 *1478:CLK *1162:A 4.80182e-05
23 *1478:CLK *516:29 0
24 *1535:CLK *1171:A 4.66826e-05
25 *1535:CLK *330:10 0.000257644
26 *329:14 *437:42 0.000100536
27 *329:14 *510:6 4.05674e-06
28 *329:14 *512:23 7.1635e-05
29 *329:41 *1607:A 0.000265565
30 *329:41 *517:6 0.00012657
31 *329:62 *1381:A 8.65961e-05
32 *329:105 *437:42 0.000171416
33 *329:105 *512:23 7.03765e-05
34 *1161:B *329:41 9.30787e-05
35 *1161:B *329:62 4.82919e-05
36 *1162:B *329:41 6.71882e-05
37 *1163:B *329:62 8.43862e-05
38 *1164:A *1478:CLK 1.0183e-05
39 *1164:A *329:41 1.52945e-05
40 *1164:A *329:62 0.000123225
41 *1172:A *1535:CLK 5.35091e-05
42 *1179:A1 *1472:CLK 0
43 *1179:A1 *1474:CLK 0
44 *1179:A1 *329:18 0
45 *1179:B1 *329:14 2.68739e-05
46 *1182:A1 *1473:CLK 4.77769e-05
47 *1183:A1 *1473:CLK 0.000152382
48 *1183:A1 *329:105 7.13792e-05
49 *1187:A *1474:CLK 0.000238056
50 *1187:A *329:18 5.4003e-05
51 *1187:B *329:14 0.000233992
52 *1280:B *1535:CLK 0.000125262
53 *1280:C *1535:CLK 0.000421305
54 *1317:A *329:18 0
55 *1381:C_N *1476:CLK 9.01848e-05
56 *1381:C_N *329:62 5.34747e-05
57 *1382:A *329:62 9.80032e-06
58 *1453:A *1535:CLK 0.000124895
59 *1473:D *1473:CLK 8.73589e-05
60 *1473:RESET_B *329:105 3.23391e-05
61 *1475:D *329:18 0.000137779
62 *1476:D *1476:CLK 2.78574e-05
63 *1478:D *1478:CLK 4.82863e-05
64 *1479:RESET_B *329:24 1.23437e-05
65 *152:12 *1535:CLK 9.29176e-05
66 *157:10 *329:18 0
67 *158:45 *329:14 2.02596e-05
68 *158:83 *1535:CLK 8.63479e-05
69 *159:14 *329:18 2.87867e-05
70 *241:10 *1535:CLK 7.05395e-05
71 *288:38 *1478:CLK 5.28983e-05
72 *288:68 *1478:CLK 4.13249e-05
73 *288:68 *329:41 6.81237e-05
74 *309:10 *1535:CLK 3.00381e-05
*RES
1 *1538:X *329:6 3.6 
2 *329:6 *329:14 12.805 
3 *329:14 *329:16 0.795 
4 *329:16 *329:18 4.695 
5 *329:18 *329:24 6.8 
6 *329:24 *1479:CLK 7.51 
7 *329:24 *329:41 10.295 
8 *329:41 *1478:CLK 11.34 
9 *329:41 *329:62 6.59 
10 *329:62 *1477:CLK 1.6 
11 *329:62 *1476:CLK 9.985 
12 *329:18 *1475:CLK 3.6 
13 *329:16 *1474:CLK 13.095 
14 *329:14 *1472:CLK 4.215 
15 *329:6 *329:105 3.675 
16 *329:105 *1535:CLK 23.37 
17 *329:105 *1473:CLK 11.115 
*END

*D_NET *330 0.0125806
*CONN
*I *1457:CLK I *D sky130_fd_sc_hd__dfxtp_1
*I *1515:CLK I *D sky130_fd_sc_hd__dfxtp_1
*I *1499:CLK I *D sky130_fd_sc_hd__dfxtp_1
*I *1534:CLK I *D sky130_fd_sc_hd__dfxtp_1
*I *1531:CLK I *D sky130_fd_sc_hd__dfxtp_1
*I *1507:CLK I *D sky130_fd_sc_hd__dfxtp_1
*I *1491:CLK I *D sky130_fd_sc_hd__dfxtp_1
*I *1539:X O *D sky130_fd_sc_hd__clkbuf_16
*CAP
1 *1457:CLK 0.000187089
2 *1515:CLK 2.09808e-05
3 *1499:CLK 0
4 *1534:CLK 0.000908256
5 *1531:CLK 0.000145022
6 *1507:CLK 3.55506e-05
7 *1491:CLK 0.000730896
8 *1539:X 0.000846825
9 *330:65 0.00105281
10 *330:50 0.000773152
11 *330:38 0.000740252
12 *330:16 0.00166623
13 *330:12 0.00113548
14 *330:10 0.00103391
15 *1457:CLK *444:66 7.17811e-05
16 *1491:CLK *1233:B2 1.83847e-05
17 *1491:CLK *1637:A 0
18 *1491:CLK *1648:A 0.00011626
19 *1531:CLK *1283:C 0
20 *330:10 *511:10 9.18988e-05
21 *330:16 *1233:B1 1.4399e-05
22 *330:16 *1233:B2 0.000248971
23 *330:16 *1296:A1 3.77036e-05
24 *330:16 *364:8 5.71701e-06
25 *330:16 *444:46 0.000271776
26 *330:38 *1296:A1 4.82919e-05
27 *330:50 *1283:C 5.69216e-05
28 *1188:B *330:10 4.63004e-05
29 *1200:A_N *330:10 3.11984e-05
30 *1234:A2 *1457:CLK 0.000238715
31 *1234:B1 *330:38 6.05513e-05
32 *1281:A1 *330:50 7.45558e-05
33 *1281:A2 *330:10 0
34 *1297:A *1457:CLK 1.52945e-05
35 *1336:A *330:50 0
36 *1372:A *1534:CLK 6.18661e-05
37 *1372:A *330:65 0.000122202
38 *1445:A *1531:CLK 0
39 *1457:D *1457:CLK 5.20335e-05
40 *1515:D *330:50 7.58658e-05
41 *1531:D *1531:CLK 5.11655e-05
42 *1535:CLK *330:10 0.000257644
43 *142:116 *1457:CLK 0.000101456
44 *142:116 *330:10 0.000153782
45 *152:12 *330:10 4.71697e-05
46 *157:75 *330:10 2.38346e-05
47 *157:86 *330:10 1.3515e-05
48 *160:45 *330:50 0.000197254
49 *160:45 *330:65 0.000358738
50 *165:171 *330:50 0
51 *172:26 *1531:CLK 9.12671e-06
52 *176:34 *1534:CLK 0.000105881
53 *219:20 *1457:CLK 0.000139478
54 *245:20 *1457:CLK 0
55 *245:20 *330:10 0
56 *245:20 *330:38 2.05056e-05
57 *245:33 *330:38 6.38806e-05
*RES
1 *1539:X *330:10 17.13 
2 *330:10 *330:12 2 
3 *330:12 *330:16 11.85 
4 *330:16 *1491:CLK 13.985 
5 *330:16 *1507:CLK 2.215 
6 *330:12 *330:38 3.9 
7 *330:38 *330:50 12.385 
8 *330:50 *1531:CLK 7.85 
9 *330:50 *330:65 3.9 
10 *330:65 *1534:CLK 16.325 
11 *330:65 *1499:CLK 1.6 
12 *330:38 *1515:CLK 1.96 
13 *330:10 *1457:CLK 9.21 
*END

*D_NET *331 0.0138246
*CONN
*I *1503:CLK I *D sky130_fd_sc_hd__dfxtp_1
*I *1487:CLK I *D sky130_fd_sc_hd__dfxtp_1
*I *1519:CLK I *D sky130_fd_sc_hd__dfxtp_1
*I *1486:CLK I *D sky130_fd_sc_hd__dfxtp_1
*I *1470:CLK I *D sky130_fd_sc_hd__dfrtp_1
*I *1460:CLK I *D sky130_fd_sc_hd__dfxtp_1
*I *1471:CLK I *D sky130_fd_sc_hd__dfrtp_1
*I *1510:CLK I *D sky130_fd_sc_hd__dfxtp_1
*I *1461:CLK I *D sky130_fd_sc_hd__dfxtp_1
*I *1511:CLK I *D sky130_fd_sc_hd__dfxtp_1
*I *1462:CLK I *D sky130_fd_sc_hd__dfrtp_1
*I *1494:CLK I *D sky130_fd_sc_hd__dfxtp_1
*I *1495:CLK I *D sky130_fd_sc_hd__dfxtp_1
*I *1540:X O *D sky130_fd_sc_hd__clkbuf_16
*CAP
1 *1503:CLK 0.000211154
2 *1487:CLK 0.000169055
3 *1519:CLK 0.000204331
4 *1486:CLK 2.14853e-05
5 *1470:CLK 0
6 *1460:CLK 0
7 *1471:CLK 8.18584e-05
8 *1510:CLK 2.09808e-05
9 *1461:CLK 0.00026969
10 *1511:CLK 1.46252e-05
11 *1462:CLK 0.000106904
12 *1494:CLK 2.09808e-05
13 *1495:CLK 5.81129e-05
14 *1540:X 0.00031382
15 *331:133 0.000524395
16 *331:114 0.000502432
17 *331:105 0.000435799
18 *331:48 0.000806993
19 *331:46 0.000831156
20 *331:38 0.00068085
21 *331:36 0.000504906
22 *331:34 0.000437166
23 *331:23 0.000397111
24 *331:12 0.000303125
25 *331:8 0.000593596
26 *1461:CLK *1397:A0 0
27 *1487:CLK *488:51 4.82863e-05
28 *1503:CLK *1194:A1 0
29 *1519:CLK *1203:A1 0
30 *1519:CLK *477:66 0
31 *1519:CLK *488:16 0.000116165
32 *331:23 *352:12 4.77757e-05
33 *331:34 *352:12 0.000306212
34 *331:38 *1193:A1 0
35 *331:38 *1206:A1 8.96962e-05
36 *331:38 *368:10 0
37 *331:46 *1206:A1 3.68682e-05
38 *331:46 *1395:A0 0
39 *331:46 *1593:A 1.37328e-05
40 *331:46 *368:10 0.000122701
41 *331:48 *368:10 0.000123955
42 *331:105 *1206:A1 4.90227e-05
43 *331:114 *1207:A1 8.11966e-05
44 *331:114 *1589:A 2.47079e-05
45 *331:133 *1302:A0 8.23457e-05
46 *331:133 *1589:A 6.62684e-05
47 *331:133 *477:22 5.47426e-05
48 *331:133 *488:16 0.000520861
49 *1204:A1 *1487:CLK 0
50 *1206:A2 *1487:CLK 4.51607e-05
51 *1206:A2 *331:36 1.66006e-05
52 *1206:A2 *331:38 1.64067e-05
53 *1206:B1 *1487:CLK 0.000150461
54 *1206:B1 *331:36 0.000186195
55 *1206:B1 *331:38 7.3553e-05
56 *1206:B1 *331:105 5.83121e-06
57 *1207:B1 *331:105 0.000241098
58 *1207:B1 *331:114 3.0933e-05
59 *1212:B2 *1519:CLK 0
60 *1212:B2 *331:133 0
61 *1213:S *331:114 0.000314505
62 *1213:S *331:133 0.000174893
63 *1214:A *331:133 2.99026e-05
64 *1302:S *1487:CLK 8.33066e-06
65 *1302:S *331:36 0.00015356
66 *1303:A *331:105 8.52972e-05
67 *1305:A *1461:CLK 0
68 *1342:A *1486:CLK 5.83121e-06
69 *1342:A *331:133 9.08126e-05
70 *1359:S *331:34 0.000164329
71 *1360:A *331:105 8.41384e-05
72 *1362:A *1495:CLK 0.000235378
73 *1362:A *1503:CLK 4.43871e-06
74 *1362:A *331:12 3.61339e-05
75 *1362:A *331:23 8.53011e-05
76 *1380:A *1503:CLK 0.000117825
77 *1417:A *1519:CLK 0.000115614
78 *1460:D *331:105 1.5379e-05
79 *1460:D *331:114 0.000111337
80 *1461:D *1461:CLK 0
81 *1470:D *331:133 2.68526e-05
82 *1471:D *331:38 0.000118513
83 *1486:D *1486:CLK 4.77719e-05
84 *1494:D *331:34 0.000122911
85 *1495:D *1495:CLK 0.000109537
86 *1510:D *331:46 1.43717e-05
87 *1511:D *1462:CLK 2.30292e-05
88 *1511:D *1511:CLK 5.82919e-05
89 *1511:D *331:48 9.42072e-05
90 *1540:A *1503:CLK 0.000357555
91 *163:203 *1487:CLK 6.57032e-05
92 *163:203 *331:38 2.03719e-05
93 *167:142 *1487:CLK 8.93677e-05
94 *168:38 *331:8 0.000507936
95 *268:67 *1495:CLK 3.82958e-05
96 *268:67 *331:23 0.000107903
97 *268:67 *331:34 3.90905e-05
98 *288:38 *1462:CLK 3.54025e-05
99 *288:38 *331:48 5.32178e-05
*RES
1 *1540:X *331:8 8.19 
2 *331:8 *331:12 3.125 
3 *331:12 *1495:CLK 4.135 
4 *331:12 *331:23 3.555 
5 *331:23 *1494:CLK 1.96 
6 *331:23 *331:34 6.935 
7 *331:34 *331:36 2.4 
8 *331:36 *331:38 4.695 
9 *331:38 *331:46 8.24 
10 *331:46 *331:48 6.66 
11 *331:48 *1462:CLK 3.445 
12 *331:48 *1511:CLK 2.43625 
13 *331:48 *1461:CLK 9.83 
14 *331:46 *1510:CLK 1.96 
15 *331:38 *1471:CLK 4.755 
16 *331:36 *331:105 7.64 
17 *331:105 *1460:CLK 1.6 
18 *331:105 *331:114 6.33 
19 *331:114 *1470:CLK 1.6 
20 *331:114 *331:133 14.265 
21 *331:133 *1486:CLK 4.05 
22 *331:133 *1519:CLK 7.53 
23 *331:34 *1487:CLK 7.98 
24 *331:8 *1503:CLK 8.295 
*END

*D_NET *332 0.0104742
*CONN
*I *1527:CLK I *D sky130_fd_sc_hd__dfxtp_1
*I *1525:CLK I *D sky130_fd_sc_hd__dfxtp_1
*I *1517:CLK I *D sky130_fd_sc_hd__dfxtp_1
*I *1463:CLK I *D sky130_fd_sc_hd__dfrtp_1
*I *1518:CLK I *D sky130_fd_sc_hd__dfxtp_1
*I *1501:CLK I *D sky130_fd_sc_hd__dfxtp_1
*I *1533:CLK I *D sky130_fd_sc_hd__dfxtp_1
*I *1526:CLK I *D sky130_fd_sc_hd__dfxtp_1
*I *1502:CLK I *D sky130_fd_sc_hd__dfxtp_1
*I *1541:X O *D sky130_fd_sc_hd__clkbuf_16
*CAP
1 *1527:CLK 0.000173104
2 *1525:CLK 0
3 *1517:CLK 0
4 *1463:CLK 0
5 *1518:CLK 0.000263248
6 *1501:CLK 2.09808e-05
7 *1533:CLK 0.000211795
8 *1526:CLK 0.000255977
9 *1502:CLK 0.000112137
10 *1541:X 0
11 *332:86 0.000478946
12 *332:78 0.00050896
13 *332:74 0.000661462
14 *332:46 0.00031407
15 *332:42 0.000639704
16 *332:29 0.000723364
17 *332:10 0.000722881
18 *332:4 0.000506671
19 *1526:CLK *1450:A0 4.77807e-05
20 *1526:CLK *1548:A 8.9336e-05
21 *1533:CLK *390:12 4.89295e-05
22 *332:10 *1201:A1 0
23 *332:10 *488:108 3.86529e-05
24 *332:29 *1210:A1 0
25 *332:46 *390:12 4.94474e-05
26 *332:74 *1219:A1 4.29107e-05
27 *332:74 *1219:B2 0.000122337
28 *332:74 *1572:A 2.59981e-05
29 *332:86 *1430:A0 0.000116853
30 *1201:A2 *332:10 0
31 *1201:B1 *332:10 0
32 *1201:B1 *332:29 0
33 *1201:B1 *332:42 0
34 *1209:A1 *1518:CLK 2.0187e-05
35 *1209:A2 *1518:CLK 0.000119196
36 *1211:B1 *1518:CLK 1.20052e-05
37 *1211:C1 *1526:CLK 8.88974e-05
38 *1219:A2 *332:74 2.49909e-05
39 *1220:C1 *332:74 0.000164874
40 *1220:C1 *332:78 0.000173282
41 *1236:B1 *1533:CLK 9.85468e-05
42 *1463:D *1518:CLK 1.18308e-05
43 *1501:D *332:46 7.45772e-05
44 *1502:D *1502:CLK 0.000122917
45 *1502:D *332:10 7.9642e-06
46 *1502:D *332:29 0.000101319
47 *1525:D *332:78 1.43717e-05
48 *1533:D *1533:CLK 1.43717e-05
49 *160:97 *1533:CLK 0.000434025
50 *160:97 *332:74 6.56884e-05
51 *160:97 *332:78 0.000321348
52 *160:113 *1518:CLK 0.000154986
53 *160:113 *332:86 9.08567e-05
54 *165:82 *1533:CLK 8.92216e-05
55 *165:82 *332:46 1.77385e-05
56 *165:139 *1518:CLK 0
57 *166:76 *1502:CLK 0.000298501
58 *166:120 *332:86 0.000122056
59 *176:45 *1526:CLK 0.00023422
60 *176:64 *332:42 0
61 *176:64 *332:74 0
62 *268:86 *332:10 2.45838e-05
63 *278:31 *1527:CLK 0.000160635
64 *278:31 *332:10 8.09157e-05
65 *299:109 *332:86 0.000175901
66 *299:135 *332:86 0.000141994
67 *319:38 *332:10 9.42551e-05
68 *319:38 *332:29 0.000195766
69 *319:47 *332:29 4.91032e-05
70 *319:47 *332:42 0.000165239
71 *319:84 *332:42 0.00018239
72 *319:84 *332:74 0.000149881
*RES
1 *1541:X *332:4 1.6 
2 *332:4 *332:10 7.505 
3 *332:10 *1502:CLK 6.84 
4 *332:10 *332:29 4.995 
5 *332:29 *1526:CLK 9.24 
6 *332:29 *332:42 4.185 
7 *332:42 *332:46 3.485 
8 *332:46 *1533:CLK 7.585 
9 *332:46 *1501:CLK 1.96 
10 *332:42 *332:74 9.65 
11 *332:74 *332:78 6.675 
12 *332:78 *332:86 10.105 
13 *332:86 *1518:CLK 10.685 
14 *332:86 *1463:CLK 1.6 
15 *332:78 *1517:CLK 1.6 
16 *332:74 *1525:CLK 1.6 
17 *332:4 *1527:CLK 4.735 
*END

*D_NET *333 0.0112883
*CONN
*I *1506:CLK I *D sky130_fd_sc_hd__dfxtp_1
*I *1483:CLK I *D sky130_fd_sc_hd__dfxtp_1
*I *1481:CLK I *D sky130_fd_sc_hd__dfxtp_1
*I *1458:CLK I *D sky130_fd_sc_hd__dfxtp_1
*I *1508:CLK I *D sky130_fd_sc_hd__dfxtp_1
*I *1469:CLK I *D sky130_fd_sc_hd__dfrtp_1
*I *1489:CLK I *D sky130_fd_sc_hd__dfxtp_1
*I *1455:CLK I *D sky130_fd_sc_hd__dfxtp_1
*I *1505:CLK I *D sky130_fd_sc_hd__dfxtp_1
*I *1466:CLK I *D sky130_fd_sc_hd__dfrtp_1
*I *1542:X O *D sky130_fd_sc_hd__clkbuf_16
*CAP
1 *1506:CLK 0.000126379
2 *1483:CLK 0.000330305
3 *1481:CLK 0
4 *1458:CLK 0.000194926
5 *1508:CLK 2.54315e-05
6 *1469:CLK 0.000101686
7 *1489:CLK 0.0001292
8 *1455:CLK 0.000362745
9 *1505:CLK 0
10 *1466:CLK 0.00013051
11 *1542:X 0
12 *333:98 0.00059981
13 *333:91 0.000466503
14 *333:39 0.000959309
15 *333:24 0.000846753
16 *333:22 0.000531821
17 *333:20 0.000897237
18 *333:16 0.00095051
19 *333:10 0.000825816
20 *333:4 0.000541798
21 *1455:CLK *362:10 4.92935e-05
22 *1458:CLK *365:16 7.21296e-06
23 *1458:CLK *438:42 6.37775e-05
24 *1466:CLK *1648:A 0
25 *1469:CLK *1648:A 0
26 *1483:CLK *437:122 0.000173613
27 *333:10 *438:42 0.000188785
28 *333:16 *365:16 8.53011e-05
29 *333:20 *1222:A0 0.000194295
30 *333:22 *1648:A 0
31 *333:24 *1648:A 0
32 *1231:A1 *333:16 0.00019313
33 *1284:A *333:10 0
34 *1298:S *333:91 8.35118e-05
35 *1298:S *333:98 2.39856e-05
36 *1299:A *333:16 5.83121e-06
37 *1350:A *333:39 0.00019637
38 *1355:S *333:20 1.31227e-05
39 *1356:A *333:20 4.89295e-05
40 *1455:D *1455:CLK 0.000122337
41 *1458:D *1458:CLK 9.51364e-05
42 *1458:D *333:10 5.31158e-06
43 *1481:D *333:98 8.58415e-05
44 *1483:D *1483:CLK 3.60024e-06
45 *1489:D *333:39 3.00381e-05
46 *1505:D *1455:CLK 0.000111831
47 *1508:D *333:16 7.53557e-05
48 *1627:A *333:22 0
49 *158:135 *333:16 3.21081e-06
50 *163:45 *333:20 0.000284417
51 *165:171 *1483:CLK 0
52 *167:38 *333:10 2.0187e-05
53 *167:38 *333:91 4.12775e-05
54 *245:85 *1506:CLK 0.000212405
55 *245:85 *333:98 0.000120916
56 *258:56 *1483:CLK 0
57 *258:60 *1483:CLK 0.00017734
58 *288:100 *1506:CLK 0.000225588
59 *288:100 *333:91 0.000142597
60 *288:100 *333:98 0.000182968
*RES
1 *1542:X *333:4 1.6 
2 *333:4 *333:10 5.54 
3 *333:10 *333:16 9.365 
4 *333:16 *333:20 10.385 
5 *333:20 *333:22 4.695 
6 *333:22 *333:24 1.89 
7 *333:24 *1466:CLK 5.745 
8 *333:24 *333:39 11.435 
9 *333:39 *1505:CLK 1.6 
10 *333:39 *1455:CLK 7.915 
11 *333:22 *1489:CLK 5.43 
12 *333:20 *1469:CLK 5.235 
13 *333:16 *1508:CLK 1.96 
14 *333:10 *1458:CLK 7.155 
15 *333:4 *333:91 5.895 
16 *333:91 *1481:CLK 1.6 
17 *333:91 *333:98 3.9 
18 *333:98 *1483:CLK 12.125 
19 *333:98 *1506:CLK 5.5 
*END

*D_NET *334 0.010418
*CONN
*I *1529:CLK I *D sky130_fd_sc_hd__dfxtp_1
*I *1497:CLK I *D sky130_fd_sc_hd__dfxtp_1
*I *1500:CLK I *D sky130_fd_sc_hd__dfxtp_1
*I *1532:CLK I *D sky130_fd_sc_hd__dfxtp_1
*I *1516:CLK I *D sky130_fd_sc_hd__dfxtp_1
*I *1468:CLK I *D sky130_fd_sc_hd__dfrtp_1
*I *1492:CLK I *D sky130_fd_sc_hd__dfxtp_1
*I *1513:CLK I *D sky130_fd_sc_hd__dfxtp_1
*I *1524:CLK I *D sky130_fd_sc_hd__dfxtp_1
*I *1484:CLK I *D sky130_fd_sc_hd__dfxtp_1
*I *1543:X O *D sky130_fd_sc_hd__clkbuf_16
*CAP
1 *1529:CLK 0.000124338
2 *1497:CLK 0.000149903
3 *1500:CLK 0
4 *1532:CLK 0.000261681
5 *1516:CLK 0
6 *1468:CLK 0.000402277
7 *1492:CLK 0.000283616
8 *1513:CLK 0.000131286
9 *1524:CLK 0
10 *1484:CLK 0.000260399
11 *1543:X 8.76197e-05
12 *334:104 0.000548151
13 *334:95 0.00031677
14 *334:86 0.000746794
15 *334:55 0.00116604
16 *334:49 0.000515992
17 *334:32 0.000889743
18 *334:23 0.000722615
19 *334:21 0.000637154
20 *334:8 0.000542919
21 *1484:CLK *1410:A1 0
22 *1484:CLK *438:75 0.000249013
23 *1492:CLK *1648:A 0
24 *1497:CLK *1373:A0 2.30258e-05
25 *1513:CLK *1639:A 0
26 *334:21 *1410:A1 0
27 *334:32 *1253:A 2.12396e-05
28 *334:32 *373:8 5.062e-06
29 *334:55 *1639:A 0
30 *334:55 *1648:A 0
31 *334:55 *420:10 0
32 *334:86 *1404:A0 3.86607e-05
33 *334:86 *422:14 0
34 *334:95 *389:8 2.01737e-05
35 *334:104 *1373:A1 0.000347916
36 *334:104 *389:8 0.000143235
37 *1223:A *1492:CLK 0
38 *1224:A2 *1484:CLK 9.50342e-06
39 *1228:A2 *1497:CLK 7.27003e-05
40 *1228:B1 *1497:CLK 0.000122801
41 *1254:A2 *334:32 5.44686e-05
42 *1277:A *1484:CLK 0
43 *1277:A *334:21 0
44 *1277:A *334:86 0
45 *1314:A *1492:CLK 2.11084e-05
46 *1373:S *334:104 2.69153e-05
47 *1374:A *1529:CLK 0
48 *1404:S *334:21 0.000200419
49 *1404:S *334:86 0.000152127
50 *1446:S *334:104 0.000530165
51 *1468:RESET_B *1492:CLK 0
52 *1500:D *334:104 5.01066e-05
53 *1516:D *334:32 1.5693e-05
54 *1524:D *334:21 0
55 *1529:D *1529:CLK 4.22574e-05
56 *1532:D *1532:CLK 0.000312304
57 *1532:D *334:86 3.32056e-05
58 *254:61 *1492:CLK 8.78813e-05
59 *254:82 *334:8 5.07419e-05
*RES
1 *1543:X *334:8 4.74 
2 *334:8 *1484:CLK 8.43 
3 *334:8 *334:21 3.675 
4 *334:21 *334:23 2 
5 *334:23 *1524:CLK 1.6 
6 *334:23 *334:32 8.31 
7 *334:32 *1513:CLK 7.535 
8 *334:32 *334:49 0.615 
9 *334:49 *334:55 9.26 
10 *334:55 *1492:CLK 8.745 
11 *334:55 *1468:CLK 8.115 
12 *334:49 *1516:CLK 1.6 
13 *334:21 *334:86 10.01 
14 *334:86 *1532:CLK 6.535 
15 *334:86 *334:95 0.795 
16 *334:95 *1500:CLK 1.6 
17 *334:95 *334:104 10.04 
18 *334:104 *1497:CLK 6.63 
19 *334:104 *1529:CLK 5.745 
*END

*D_NET *335 0.0139778
*CONN
*I *1459:CLK I *D sky130_fd_sc_hd__dfxtp_1
*I *1504:CLK I *D sky130_fd_sc_hd__dfxtp_1
*I *1454:CLK I *D sky130_fd_sc_hd__dfxtp_1
*I *1480:CLK I *D sky130_fd_sc_hd__dfxtp_1
*I *1485:CLK I *D sky130_fd_sc_hd__dfxtp_1
*I *1465:CLK I *D sky130_fd_sc_hd__dfrtp_1
*I *1509:CLK I *D sky130_fd_sc_hd__dfxtp_1
*I *1490:CLK I *D sky130_fd_sc_hd__dfxtp_1
*I *1456:CLK I *D sky130_fd_sc_hd__dfxtp_1
*I *1523:CLK I *D sky130_fd_sc_hd__dfxtp_1
*I *1493:CLK I *D sky130_fd_sc_hd__dfxtp_1
*I *1544:X O *D sky130_fd_sc_hd__clkbuf_16
*CAP
1 *1459:CLK 0
2 *1504:CLK 0.000128358
3 *1454:CLK 0
4 *1480:CLK 0.000251014
5 *1485:CLK 0.000261074
6 *1465:CLK 0.000359078
7 *1509:CLK 0
8 *1490:CLK 0.000295966
9 *1456:CLK 0.000182019
10 *1523:CLK 0.000240399
11 *1493:CLK 0
12 *1544:X 5.74715e-05
13 *335:112 0.000512088
14 *335:110 0.00017775
15 *335:106 0.000476026
16 *335:89 0.000564586
17 *335:85 0.000533787
18 *335:40 0.000601679
19 *335:27 0.000759262
20 *335:16 0.000841672
21 *335:12 0.00051382
22 *335:8 0.000622986
23 *1465:CLK *1300:A1 0.000453914
24 *1480:CLK *1261:A1 0.000219672
25 *1480:CLK *393:14 1.23707e-05
26 *1490:CLK *1387:A0 0.000111624
27 *1504:CLK *1260:B2 0.00019626
28 *1523:CLK *340:14 3.86607e-05
29 *335:12 *1572:A 7.30547e-05
30 *335:16 *350:6 7.1928e-05
31 *335:27 *1239:A1 5.6361e-05
32 *335:85 *1215:B1 0.000136701
33 *335:85 *1221:A1 4.80084e-05
34 *335:106 *1260:B2 0.00011109
35 *335:106 *1290:A0 4.90592e-05
36 *335:110 *1329:A1 9.04102e-05
37 *335:110 *393:14 0.000106534
38 *335:110 *401:76 8.54281e-05
39 *1215:A2 *1465:CLK 1.37328e-05
40 *1216:A2 *1485:CLK 1.747e-05
41 *1216:B1 *1465:CLK 0.000234983
42 *1221:A2 *335:106 7.27704e-06
43 *1221:B1 *335:85 7.93221e-05
44 *1221:B2 *1465:CLK 1.92667e-05
45 *1221:B2 *335:85 4.89395e-05
46 *1239:A2 *335:27 0.000275548
47 *1239:B1 *335:27 0.0001249
48 *1239:B2 *1523:CLK 0
49 *1240:A1 *1490:CLK 0.000135147
50 *1240:A1 *335:27 4.99619e-05
51 *1240:A1 *335:40 0.000144311
52 *1258:A1 *1465:CLK 7.46328e-06
53 *1258:A1 *335:8 8.65961e-05
54 *1258:S *1485:CLK 4.6902e-05
55 *1261:A2 *1480:CLK 1.52352e-05
56 *1266:A2 *335:106 6.54361e-06
57 *1291:A *1480:CLK 1.15688e-05
58 *1291:A *1485:CLK 9.52245e-05
59 *1300:S *1465:CLK 2.75145e-05
60 *1301:A *1465:CLK 0.000158196
61 *1301:A *335:106 8.978e-05
62 *1340:A *1485:CLK 0.000121027
63 *1352:A *1490:CLK 5.0751e-05
64 *1393:S *335:85 6.14123e-05
65 *1394:A *335:12 3.4222e-05
66 *1394:A *335:85 3.57846e-05
67 *1427:A *335:27 5.05437e-05
68 *1454:D *335:110 9.69337e-05
69 *1459:D *1465:CLK 1.82111e-05
70 *1459:D *335:106 6.04973e-05
71 *1465:D *1465:CLK 2.68464e-05
72 *1490:D *1490:CLK 0.000111993
73 *1493:D *335:16 5.20335e-05
74 *1509:D *335:16 0.000119756
75 *158:135 *1490:CLK 0.000293243
76 *158:158 *1504:CLK 0.000207644
77 *158:158 *335:106 1.79483e-05
78 *165:90 *1465:CLK 5.23663e-05
79 *165:90 *335:106 3.33035e-05
80 *167:65 *1490:CLK 0.000102922
81 *176:77 *335:12 4.10273e-05
82 *176:77 *335:85 0
83 *245:85 *1456:CLK 0.000186026
84 *258:40 *1523:CLK 4.99619e-05
85 *258:110 *1480:CLK 0.000120186
86 *288:100 *1456:CLK 0.000129697
87 *299:22 *1490:CLK 0.000158628
88 *299:22 *1523:CLK 0.000168922
89 *299:22 *335:40 0.00010683
90 *299:109 *1480:CLK 0.000133075
91 *299:109 *1485:CLK 0.000156377
92 *309:23 *1523:CLK 0
93 *309:23 *335:40 0
94 *319:84 *335:85 0
95 *328:20 *335:16 0.000175862
96 *328:20 *335:27 6.78179e-05
*RES
1 *1544:X *335:8 4.395 
2 *335:8 *335:12 3.635 
3 *335:12 *335:16 8.4 
4 *335:16 *1493:CLK 1.6 
5 *335:16 *335:27 9.71 
6 *335:27 *1523:CLK 8.745 
7 *335:27 *335:40 3.42 
8 *335:40 *1456:CLK 7.53 
9 *335:40 *1490:CLK 12.495 
10 *335:12 *1509:CLK 1.6 
11 *335:8 *335:85 10.67 
12 *335:85 *335:89 2.45 
13 *335:89 *1465:CLK 13.125 
14 *335:89 *335:106 3.93 
15 *335:106 *335:110 5.9 
16 *335:110 *335:112 2 
17 *335:112 *1485:CLK 9.06 
18 *335:112 *1480:CLK 8.82 
19 *335:110 *1454:CLK 1.6 
20 *335:106 *1504:CLK 6.81 
21 *335:85 *1459:CLK 1.6 
*END

*D_NET *336 0.0134235
*CONN
*I *1482:CLK I *D sky130_fd_sc_hd__dfxtp_1
*I *1464:CLK I *D sky130_fd_sc_hd__dfrtp_1
*I *1512:CLK I *D sky130_fd_sc_hd__dfxtp_1
*I *1520:CLK I *D sky130_fd_sc_hd__dfxtp_1
*I *1496:CLK I *D sky130_fd_sc_hd__dfxtp_1
*I *1528:CLK I *D sky130_fd_sc_hd__dfxtp_1
*I *1530:CLK I *D sky130_fd_sc_hd__dfxtp_1
*I *1498:CLK I *D sky130_fd_sc_hd__dfxtp_1
*I *1522:CLK I *D sky130_fd_sc_hd__dfxtp_1
*I *1514:CLK I *D sky130_fd_sc_hd__dfxtp_1
*I *1488:CLK I *D sky130_fd_sc_hd__dfxtp_1
*I *1467:CLK I *D sky130_fd_sc_hd__dfrtp_1
*I *1521:CLK I *D sky130_fd_sc_hd__dfxtp_1
*I *1545:X O *D sky130_fd_sc_hd__clkbuf_16
*CAP
1 *1482:CLK 0
2 *1464:CLK 0.000146575
3 *1512:CLK 8.26988e-05
4 *1520:CLK 2.89361e-05
5 *1496:CLK 0
6 *1528:CLK 0
7 *1530:CLK 0.000106035
8 *1498:CLK 6.14994e-05
9 *1522:CLK 6.10466e-05
10 *1514:CLK 0.000132197
11 *1488:CLK 0.000139308
12 *1467:CLK 0.000105614
13 *1521:CLK 2.00462e-05
14 *1545:X 0.000202202
15 *336:144 0.000980227
16 *336:133 0.00108612
17 *336:99 0.000361278
18 *336:97 0.000447534
19 *336:87 0.000525608
20 *336:70 0.000375532
21 *336:66 0.000558065
22 *336:55 0.000633294
23 *336:40 0.000507323
24 *336:34 0.00032653
25 *336:12 0.000390535
26 *336:6 0.00071752
27 *1464:CLK *1402:A0 9.01906e-05
28 *1488:CLK *1596:A 0
29 *1488:CLK *339:14 4.82863e-05
30 *1498:CLK *1442:A1 0.000125793
31 *1512:CLK *401:36 9.30787e-05
32 *1514:CLK *1638:A 4.49875e-05
33 *1520:CLK *1244:A 1.85674e-05
34 *1522:CLK *1582:A 8.85876e-05
35 *1530:CLK *1246:B2 3.04064e-05
36 *1530:CLK *1255:B2 0.000180459
37 *1530:CLK *1651:A 9.91414e-05
38 *336:40 *1406:A1 7.25945e-05
39 *336:55 *1596:A 0
40 *336:55 *339:14 0
41 *336:66 *1638:A 9.64299e-05
42 *336:70 *1406:A0 7.23602e-05
43 *336:70 *1638:A 2.23407e-05
44 *336:87 *1638:A 0.000171405
45 *336:99 *1442:A1 0.000121891
46 *336:133 *1638:A 2.54431e-05
47 *336:133 *371:6 0.000124895
48 *1241:A *1467:CLK 4.21008e-05
49 *1241:A *1521:CLK 2.30292e-05
50 *1257:B2 *336:12 0
51 *1263:A2 *1464:CLK 0
52 *1263:A2 *1512:CLK 9.47454e-05
53 *1263:A2 *336:144 7.91921e-05
54 *1265:A2 *1522:CLK 0.000232403
55 *1265:B1 *336:144 0.000127485
56 *1334:A *336:34 0.000500239
57 *1351:S *1488:CLK 2.11084e-05
58 *1365:S *336:97 0.00018261
59 *1407:A *336:55 0
60 *1407:A *336:70 0.00011099
61 *1407:A *336:87 0.000168842
62 *1467:RESET_B *1467:CLK 0
63 *1482:D *336:34 2.6657e-05
64 *1482:D *336:40 0.000110161
65 *1488:D *1488:CLK 4.43871e-06
66 *1496:D *336:87 3.51254e-06
67 *1498:D *1498:CLK 1.43717e-05
68 *1514:D *336:55 9.37898e-05
69 *1520:D *336:144 4.82319e-06
70 *1522:D *336:55 0.000178027
71 *1545:A *336:34 0.000304474
72 *160:150 *336:144 3.82323e-06
73 *160:154 *336:133 5.36384e-06
74 *160:154 *336:144 4.51535e-05
75 *163:70 *1467:CLK 1.7635e-05
76 *163:70 *336:12 2.99445e-05
77 *163:86 *336:6 0.000275553
78 *163:86 *336:34 0.000655258
79 *163:86 *336:40 8.9128e-05
80 *176:87 *1530:CLK 0
81 *254:82 *1521:CLK 3.45588e-05
82 *299:22 *1467:CLK 2.53191e-06
83 *299:22 *336:12 3.98952e-05
84 *299:46 *1467:CLK 1.7635e-05
85 *299:46 *1521:CLK 4.82863e-05
86 *299:80 *1467:CLK 1.02024e-05
87 *299:80 *336:55 5.69898e-06
88 *319:84 *336:55 0
89 *319:104 *1498:CLK 9.37898e-05
90 *319:104 *336:97 1.77595e-05
91 *319:104 *336:99 0.000185727
*RES
1 *1545:X *336:6 4.465 
2 *336:6 *336:12 5.465 
3 *336:12 *1521:CLK 4.395 
4 *336:12 *1467:CLK 5.49 
5 *336:6 *336:34 9.345 
6 *336:34 *336:40 4.535 
7 *336:40 *1488:CLK 5.94 
8 *336:40 *336:55 6.95 
9 *336:55 *1514:CLK 3.355 
10 *336:55 *336:66 2.52 
11 *336:66 *336:70 3.38 
12 *336:70 *1522:CLK 5.775 
13 *336:70 *336:87 7.43 
14 *336:87 *336:97 8.77 
15 *336:97 *336:99 4.245 
16 *336:99 *1498:CLK 3.775 
17 *336:99 *1530:CLK 8.555 
18 *336:97 *1528:CLK 1.6 
19 *336:87 *1496:CLK 1.6 
20 *336:66 *336:133 3.555 
21 *336:133 *1520:CLK 2.215 
22 *336:133 *336:144 9.09 
23 *336:144 *1512:CLK 7.34 
24 *336:144 *1464:CLK 4.135 
25 *336:34 *1482:CLK 1.6 
*END

*D_NET *337 0.00269245
*CONN
*I *1266:A1 I *D sky130_fd_sc_hd__o22a_1
*I *1592:A I *D sky130_fd_sc_hd__dlygate4sd3_1
*I *1480:Q O *D sky130_fd_sc_hd__dfxtp_1
*CAP
1 *1266:A1 0.000637244
2 *1592:A 0.000118882
3 *1480:Q 0
4 *337:6 0.000756126
5 *1266:A1 *1267:A0 5.63054e-05
6 *1266:A1 *431:16 9.54399e-05
7 *1592:A *431:16 0.000231564
8 *1266:A2 *1266:A1 2.75229e-05
9 *1266:B1 *1266:A1 0.000158066
10 *1267:A1 *1266:A1 2.33708e-05
11 *1267:S *1266:A1 7.69532e-05
12 *1454:D *1266:A1 0.000196376
13 *163:86 *1266:A1 0.000136104
14 *254:113 *1266:A1 4.65643e-05
15 *254:113 *1592:A 0.000131932
*RES
1 *1480:Q *337:6 3.6 
2 *337:6 *1592:A 7.05 
3 *337:6 *1266:A1 15.54 
*END

*D_NET *338 0.00132446
*CONN
*I *1549:A I *D sky130_fd_sc_hd__dlygate4sd3_1
*I *1257:A1 I *D sky130_fd_sc_hd__o22a_1
*I *1481:Q O *D sky130_fd_sc_hd__dfxtp_1
*CAP
1 *1549:A 6.12446e-05
2 *1257:A1 0.000231178
3 *1481:Q 0.000106402
4 *338:8 0.000398825
5 *1257:B1 *1257:A1 2.9972e-05
6 *1257:B2 *1257:A1 0.000175088
7 *1257:B2 *1549:A 0.000112595
8 *245:85 *338:8 0.00016031
9 *258:56 *1257:A1 4.88478e-05
*RES
1 *1481:Q *338:8 5.085 
2 *338:8 *1257:A1 7.95 
3 *338:8 *1549:A 4.98 
*END

*D_NET *339 0.00325433
*CONN
*I *1596:A I *D sky130_fd_sc_hd__dlygate4sd3_1
*I *1248:A1 I *D sky130_fd_sc_hd__o22a_1
*I *1482:Q O *D sky130_fd_sc_hd__dfxtp_1
*CAP
1 *1596:A 0.00023523
2 *1248:A1 0.0001482
3 *1482:Q 0.000403756
4 *339:14 0.000787186
5 *1248:A1 *1333:A0 0.000124007
6 *1596:A *1333:A0 0.000240476
7 *1596:A *433:20 1.38171e-05
8 *1596:A *433:22 7.21296e-06
9 *339:14 *1406:A1 3.34652e-05
10 *1247:B1 *1596:A 0.000198344
11 *1248:B2 *1248:A1 9.77597e-05
12 *1351:S *339:14 0.000107424
13 *1425:A *1596:A 0.000198344
14 *1488:CLK *1596:A 0
15 *1488:CLK *339:14 4.82863e-05
16 *1488:D *339:14 1.43717e-05
17 *163:86 *339:14 0.000120655
18 *258:85 *1248:A1 0.000337418
19 *258:110 *1248:A1 2.30292e-05
20 *258:110 *339:14 2.05056e-05
21 *319:84 *339:14 9.48444e-05
22 *336:55 *1596:A 0
23 *336:55 *339:14 0
*RES
1 *1482:Q *339:14 13.13 
2 *339:14 *1248:A1 5.515 
3 *339:14 *1596:A 11.105 
*END

*D_NET *340 0.00126069
*CONN
*I *1239:A1 I *D sky130_fd_sc_hd__o22a_1
*I *1590:A I *D sky130_fd_sc_hd__dlygate4sd3_1
*I *1483:Q O *D sky130_fd_sc_hd__dfxtp_1
*CAP
1 *1239:A1 0.00021067
2 *1590:A 2.37153e-05
3 *1483:Q 0.000217692
4 *340:14 0.000452077
5 *340:14 *425:28 5.0933e-05
6 *1239:B1 *1239:A1 8.82557e-05
7 *1239:B1 *1590:A 4.99619e-05
8 *1523:CLK *340:14 3.86607e-05
9 *299:22 *340:14 7.23602e-05
10 *335:27 *1239:A1 5.6361e-05
*RES
1 *1483:Q *340:14 8.66 
2 *340:14 *1590:A 2.41 
3 *340:14 *1239:A1 5.17 
*END

*D_NET *341 0.00146434
*CONN
*I *1564:A I *D sky130_fd_sc_hd__dlygate4sd3_1
*I *1230:A1 I *D sky130_fd_sc_hd__o22a_1
*I *1484:Q O *D sky130_fd_sc_hd__dfxtp_1
*CAP
1 *1564:A 0.000177587
2 *1230:A1 0.000251506
3 *1484:Q 6.22276e-05
4 *341:6 0.000491321
5 *1230:A1 *1298:A1 0
6 *1230:A1 *1337:A0 0
7 *1230:A1 *455:50 0
8 *1564:A *438:75 7.54649e-05
9 *341:6 *1337:A0 4.85763e-05
10 *341:6 *438:75 1.28131e-05
11 *1230:A2 *1230:A1 1.25335e-05
12 *1230:B2 *1230:A1 1.10085e-05
13 *1332:A *1230:A1 7.59111e-05
14 *258:60 *1230:A1 0.000137065
15 *258:85 *1230:A1 0.000108322
*RES
1 *1484:Q *341:6 2.395 
2 *341:6 *1230:A1 10.715 
3 *341:6 *1564:A 4.045 
*END

*D_NET *342 0.00312934
*CONN
*I *1594:A I *D sky130_fd_sc_hd__dlygate4sd3_1
*I *1221:A1 I *D sky130_fd_sc_hd__o22a_1
*I *1485:Q O *D sky130_fd_sc_hd__dfxtp_1
*CAP
1 *1594:A 7.92719e-05
2 *1221:A1 0.000884457
3 *1485:Q 9.13872e-05
4 *342:12 0.00105512
5 *1221:A1 *1216:A1 0.000196056
6 *1221:A1 *1339:A0 0.000197238
7 *342:12 *431:16 0.000135382
8 *1216:A2 *1221:A1 0.000144158
9 *1221:B1 *1221:A1 6.16808e-05
10 *1339:S *1221:A1 0.000151859
11 *1459:D *1221:A1 8.89101e-06
12 *254:113 *342:12 7.58382e-05
13 *335:85 *1221:A1 4.80084e-05
*RES
1 *1485:Q *342:12 7.685 
2 *342:12 *1221:A1 15.67 
3 *342:12 *1594:A 2.74 
*END

*D_NET *343 0.00237936
*CONN
*I *1587:A I *D sky130_fd_sc_hd__dlygate4sd3_1
*I *1212:A1 I *D sky130_fd_sc_hd__o22a_1
*I *1486:Q O *D sky130_fd_sc_hd__dfxtp_1
*CAP
1 *1587:A 4.60962e-05
2 *1212:A1 0.000432982
3 *1486:Q 6.80804e-05
4 *343:10 0.000547158
5 *1212:A1 *1341:A0 0.00019674
6 *1212:A1 *1581:A 1.85674e-05
7 *1212:A1 *477:12 8.82557e-05
8 *1212:A1 *477:22 0.000144744
9 *1587:A *477:12 2.05056e-05
10 *343:10 *413:20 0.000141606
11 *1212:B1 *1212:A1 0.000157589
12 *1341:S *1212:A1 0.000517034
*RES
1 *1486:Q *343:10 7.235 
2 *343:10 *1212:A1 11.665 
3 *343:10 *1587:A 2.395 
*END

*D_NET *344 0.00113635
*CONN
*I *1203:A1 I *D sky130_fd_sc_hd__o22a_1
*I *1584:A I *D sky130_fd_sc_hd__dlygate4sd3_1
*I *1487:Q O *D sky130_fd_sc_hd__dfxtp_1
*CAP
1 *1203:A1 7.4394e-05
2 *1584:A 0.000101959
3 *1487:Q 0.000358376
4 *344:6 0.000534729
5 *1212:B2 *1203:A1 6.28843e-05
6 *1342:A *1584:A 4.00541e-06
7 *1486:D *1584:A 0
8 *1519:CLK *1203:A1 0
*RES
1 *1487:Q *344:6 5.845 
2 *344:6 *1584:A 3.7 
3 *344:6 *1203:A1 6.98 
*END

*D_NET *345 0.00361815
*CONN
*I *1567:A I *D sky130_fd_sc_hd__dlygate4sd3_1
*I *1260:B2 I *D sky130_fd_sc_hd__a22o_1
*I *1488:Q O *D sky130_fd_sc_hd__dfxtp_1
*CAP
1 *1567:A 5.54925e-05
2 *1260:B2 0.000578512
3 *1488:Q 0.000264073
4 *345:12 0.000898078
5 *1260:B2 *1260:A1 0.000154982
6 *1260:B2 *401:54 0.0002881
7 *1260:B2 *438:96 3.8251e-05
8 *1567:A *401:54 0.000110683
9 *345:12 *361:8 0.000196364
10 *1215:A2 *1260:B2 3.93467e-05
11 *1261:B1 *1260:B2 5.4753e-05
12 *1266:A2 *1260:B2 3.1191e-05
13 *1384:A *1260:B2 0
14 *1504:CLK *1260:B2 0.00019626
15 *1504:D *345:12 0.000496927
16 *158:158 *1260:B2 1.1561e-05
17 *165:90 *1260:B2 0
18 *165:90 *1567:A 0
19 *166:120 *1260:B2 8.53011e-05
20 *245:102 *1260:B2 7.18795e-06
21 *335:106 *1260:B2 0.00011109
*RES
1 *1488:Q *345:12 9.255 
2 *345:12 *1260:B2 13.68 
3 *345:12 *1567:A 4.98 
*END

*D_NET *346 0.00100167
*CONN
*I *1251:B2 I *D sky130_fd_sc_hd__a22o_1
*I *1574:A I *D sky130_fd_sc_hd__dlygate4sd3_1
*I *1489:Q O *D sky130_fd_sc_hd__dfxtp_1
*CAP
1 *1251:B2 7.09973e-05
2 *1574:A 0
3 *1489:Q 0.000415487
4 *346:16 0.000486484
5 *346:16 *1615:A 2.86975e-05
*RES
1 *1489:Q *346:16 11.435 
2 *346:16 *1574:A 1.6 
3 *346:16 *1251:B2 2.74 
*END

*D_NET *347 0.000715285
*CONN
*I *1577:A I *D sky130_fd_sc_hd__dlygate4sd3_1
*I *1242:B2 I *D sky130_fd_sc_hd__a22o_1
*I *1490:Q O *D sky130_fd_sc_hd__dfxtp_1
*CAP
1 *1577:A 7.14843e-05
2 *1242:B2 8.25884e-05
3 *1490:Q 8.10885e-05
4 *347:8 0.000235161
5 *1242:B2 *1242:A1 1.89685e-05
6 *1240:A1 *1242:B2 1.88271e-05
7 *1240:A1 *1577:A 0
8 *167:65 *347:8 0.000124895
9 *309:23 *1242:B2 2.20522e-05
10 *309:23 *1577:A 6.02202e-05
*RES
1 *1490:Q *347:8 4.74 
2 *347:8 *1242:B2 5.025 
3 *347:8 *1577:A 4.98 
*END

*D_NET *348 0.00219978
*CONN
*I *1233:B2 I *D sky130_fd_sc_hd__a22o_1
*I *1566:A I *D sky130_fd_sc_hd__dlygate4sd3_1
*I *1491:Q O *D sky130_fd_sc_hd__dfxtp_1
*CAP
1 *1233:B2 0.000418952
2 *1566:A 0.000116089
3 *1491:Q 0.000121497
4 *348:8 0.000656538
5 *1233:B2 *364:8 2.75145e-05
6 *1233:B2 *444:31 0
7 *1566:A *444:31 7.28774e-05
8 *1491:CLK *1233:B2 1.83847e-05
9 *1507:D *1233:B2 0.000111831
10 *163:14 *348:8 6.02227e-05
11 *268:37 *1233:B2 0.000232586
12 *268:37 *1566:A 0.00011432
13 *330:16 *1233:B2 0.000248971
*RES
1 *1491:Q *348:8 5.085 
2 *348:8 *1566:A 6.12 
3 *348:8 *1233:B2 12.48 
*END

*D_NET *349 0.00121211
*CONN
*I *1224:B2 I *D sky130_fd_sc_hd__a22o_1
*I *1583:A I *D sky130_fd_sc_hd__dlygate4sd3_1
*I *1492:Q O *D sky130_fd_sc_hd__dfxtp_1
*CAP
1 *1224:B2 0.000130845
2 *1583:A 0
3 *1492:Q 0.000229649
4 *349:8 0.000360494
5 *1224:B2 *1224:A1 8.8266e-05
6 *1224:B2 *365:16 8.8266e-05
7 *1224:B2 *455:33 0.000141323
8 *1224:B2 *455:48 0.000115146
9 *349:8 *1355:A0 4.77757e-05
10 *349:8 *365:16 0
11 *349:8 *455:33 1.03423e-05
*RES
1 *1492:Q *349:8 5.08 
2 *349:8 *1583:A 1.6 
3 *349:8 *1224:B2 5.5 
*END

*D_NET *350 0.00235438
*CONN
*I *1215:B2 I *D sky130_fd_sc_hd__a22o_1
*I *1572:A I *D sky130_fd_sc_hd__dlygate4sd3_1
*I *1493:Q O *D sky130_fd_sc_hd__dfxtp_1
*CAP
1 *1215:B2 0.000370333
2 *1572:A 0.000222643
3 *1493:Q 0.000210776
4 *350:6 0.000803752
5 *1572:A *1219:B2 4.82863e-05
6 *1221:B2 *1215:B2 0
7 *1393:S *1215:B2 7.63204e-05
8 *1394:A *1572:A 0.000181376
9 *1509:D *1215:B2 6.55184e-05
10 *1509:D *350:6 4.41506e-05
11 *160:97 *1572:A 3.00381e-05
12 *176:64 *1572:A 2.97004e-06
13 *176:77 *1572:A 0.000127238
14 *319:84 *1572:A 0
15 *332:74 *1572:A 2.59981e-05
16 *335:12 *1572:A 7.30547e-05
17 *335:16 *350:6 7.1928e-05
*RES
1 *1493:Q *350:6 4.12 
2 *350:6 *1572:A 11 
3 *350:6 *1215:B2 10.445 
*END

*D_NET *351 0.00227275
*CONN
*I *1581:A I *D sky130_fd_sc_hd__dlygate4sd3_1
*I *1206:B2 I *D sky130_fd_sc_hd__a22o_1
*I *1494:Q O *D sky130_fd_sc_hd__dfxtp_1
*CAP
1 *1581:A 0.000465625
2 *1206:B2 0.000127541
3 *1494:Q 0
4 *351:4 0.000593166
5 *1581:A *1343:A0 0.000238919
6 *1581:A *1395:A0 5.83121e-06
7 *1204:A1 *1581:A 8.07688e-05
8 *1206:A2 *1581:A 5.79068e-05
9 *1206:B1 *1206:B2 0.000154982
10 *1212:A1 *1581:A 1.85674e-05
11 *1341:S *1581:A 8.09157e-05
12 *1359:S *1206:B2 5.74791e-05
13 *1359:S *1581:A 0.000194921
14 *163:203 *1206:B2 0.000154479
15 *258:14 *1581:A 4.16445e-05
*RES
1 *1494:Q *351:4 1.6 
2 *351:4 *1206:B2 8.63 
3 *351:4 *1581:A 14.975 
*END

*D_NET *352 0.00144394
*CONN
*I *1193:B2 I *D sky130_fd_sc_hd__a22o_1
*I *1573:A I *D sky130_fd_sc_hd__dlygate4sd3_1
*I *1495:Q O *D sky130_fd_sc_hd__dfxtp_1
*CAP
1 *1193:B2 2.90827e-05
2 *1573:A 0
3 *1495:Q 0.000302616
4 *352:12 0.000331699
5 *1193:B2 *1193:A1 0.000160641
6 *163:203 *352:12 4.08655e-05
7 *168:38 *1193:B2 0.000160641
8 *268:75 *352:12 6.4407e-05
9 *331:23 *352:12 4.77757e-05
10 *331:34 *352:12 0.000306212
*RES
1 *1495:Q *352:12 10.19 
2 *352:12 *1573:A 1.6 
3 *352:12 *1193:B2 3.085 
*END

*D_NET *353 0.000867545
*CONN
*I *1595:A I *D sky130_fd_sc_hd__dlygate4sd3_1
*I *1264:A1 I *D sky130_fd_sc_hd__a22o_1
*I *1496:Q O *D sky130_fd_sc_hd__dfxtp_1
*CAP
1 *1595:A 0.00022496
2 *1264:A1 2.59946e-05
3 *1496:Q 0.000134868
4 *353:6 0.000385822
5 *1595:A *1438:A1 0
6 *353:6 *1264:B2 2.88357e-05
7 *1264:A2 *1264:A1 2.88357e-05
8 *1264:A2 *353:6 3.82293e-05
9 *1366:A *1595:A 0
*RES
1 *1496:Q *353:6 3.43 
2 *353:6 *1264:A1 2.41 
3 *353:6 *1595:A 9.02 
*END

*D_NET *354 0.000821063
*CONN
*I *1255:A1 I *D sky130_fd_sc_hd__a22o_1
*I *1560:A I *D sky130_fd_sc_hd__dlygate4sd3_1
*I *1497:Q O *D sky130_fd_sc_hd__dfxtp_1
*CAP
1 *1255:A1 0.000129121
2 *1560:A 1.5099e-05
3 *1497:Q 0.000131819
4 *354:6 0.000276039
5 *1228:A2 *1255:A1 9.32375e-05
6 *1228:A2 *354:6 0.00016148
7 *1228:B1 *1255:A1 1.42674e-05
*RES
1 *1497:Q *354:6 4.12 
2 *354:6 *1560:A 1.96 
3 *354:6 *1255:A1 4.045 
*END

*D_NET *355 0.000993001
*CONN
*I *1550:A I *D sky130_fd_sc_hd__dlygate4sd3_1
*I *1246:A1 I *D sky130_fd_sc_hd__a22o_1
*I *1498:Q O *D sky130_fd_sc_hd__dfxtp_1
*CAP
1 *1550:A 7.4333e-05
2 *1246:A1 9.93748e-05
3 *1498:Q 7.11128e-05
4 *355:10 0.000244821
5 *355:10 *1369:A0 7.15381e-05
6 *355:10 *433:14 1.52945e-05
7 *1365:S *355:10 0
8 *176:87 *1246:A1 0.000229059
9 *176:87 *1550:A 0.000187468
*RES
1 *1498:Q *355:10 6.98 
2 *355:10 *1246:A1 3.79 
3 *355:10 *1550:A 3.43 
*END

*D_NET *356 0.00144857
*CONN
*I *1612:A I *D sky130_fd_sc_hd__dlygate4sd3_1
*I *1237:A1 I *D sky130_fd_sc_hd__a22o_1
*I *1499:Q O *D sky130_fd_sc_hd__dfxtp_1
*CAP
1 *1612:A 3.60224e-05
2 *1237:A1 0.000205091
3 *1499:Q 0.000113929
4 *356:8 0.000355042
5 *1237:A1 *1651:A 0.00023592
6 *1612:A *1651:A 0.000106318
7 *1237:A2 *1237:A1 5.19006e-06
8 *172:26 *1237:A1 9.12856e-05
9 *172:26 *1612:A 6.30072e-05
10 *175:14 *1237:A1 2.88357e-05
11 *175:33 *1237:A1 5.11665e-05
12 *176:34 *356:8 0.000156767
*RES
1 *1499:Q *356:8 5.085 
2 *356:8 *1237:A1 8.01 
3 *356:8 *1612:A 4.98 
*END

*D_NET *357 0.00063278
*CONN
*I *1556:A I *D sky130_fd_sc_hd__dlygate4sd3_1
*I *1228:A1 I *D sky130_fd_sc_hd__a22o_1
*I *1500:Q O *D sky130_fd_sc_hd__dfxtp_1
*CAP
1 *1556:A 5.16195e-05
2 *1228:A1 0
3 *1500:Q 9.81571e-05
4 *357:12 0.000149777
5 *357:12 *1373:A1 5.18362e-05
6 *1228:A2 *1556:A 5.4294e-05
7 *1228:B1 *1556:A 0.00016947
8 *1229:C1 *1556:A 9.84609e-06
9 *1446:S *357:12 4.77807e-05
*RES
1 *1500:Q *357:12 7.175 
2 *357:12 *1228:A1 1.6 
3 *357:12 *1556:A 3.445 
*END

*D_NET *358 0.00126286
*CONN
*I *1219:A1 I *D sky130_fd_sc_hd__a22o_1
*I *1547:A I *D sky130_fd_sc_hd__dlygate4sd3_1
*I *1501:Q O *D sky130_fd_sc_hd__dfxtp_1
*CAP
1 *1219:A1 0.000159439
2 *1547:A 0.000235068
3 *1501:Q 0
4 *358:6 0.000394507
5 *1547:A *1375:A0 5.09431e-05
6 *1219:A2 *1219:A1 4.66108e-05
7 *1375:S *1547:A 9.12494e-06
8 *1431:A *1219:A1 0
9 *160:97 *1219:A1 0.000158066
10 *165:90 *1219:A1 0
11 *175:63 *1219:A1 0.000105776
12 *175:63 *1547:A 6.04161e-05
13 *332:74 *1219:A1 4.29107e-05
*RES
1 *1501:Q *358:6 3.6 
2 *358:6 *1547:A 7.845 
3 *358:6 *1219:A1 7.485 
*END

*D_NET *359 0.00278247
*CONN
*I *1568:A I *D sky130_fd_sc_hd__dlygate4sd3_1
*I *1210:A1 I *D sky130_fd_sc_hd__a22o_1
*I *1502:Q O *D sky130_fd_sc_hd__dfxtp_1
*CAP
1 *1568:A 0.000134114
2 *1210:A1 0.000590577
3 *1502:Q 0
4 *359:4 0.000724691
5 *1210:A1 *1210:B2 0.000104339
6 *1210:A1 *1450:A1 0.000126426
7 *1210:A1 *1548:A 1.19928e-05
8 *1210:A1 *391:12 0.00026338
9 *1201:B1 *1210:A1 0.000170594
10 *1210:A2 *1210:A1 4.66108e-05
11 *1378:A *1210:A1 0.000118907
12 *166:76 *1210:A1 5.01764e-05
13 *166:76 *1568:A 0.000156618
14 *176:45 *1210:A1 0.000271077
15 *268:86 *1210:A1 1.29665e-05
16 *332:29 *1210:A1 0
*RES
1 *1502:Q *359:4 1.6 
2 *359:4 *1210:A1 22.32 
3 *359:4 *1568:A 4.48 
*END

*D_NET *360 0.00185567
*CONN
*I *1201:A1 I *D sky130_fd_sc_hd__a22o_1
*I *1578:A I *D sky130_fd_sc_hd__dlygate4sd3_1
*I *1503:Q O *D sky130_fd_sc_hd__dfxtp_1
*CAP
1 *1201:A1 0.000426733
2 *1578:A 6.56381e-05
3 *1503:Q 0.000114142
4 *360:6 0.000606512
5 *1201:A1 *488:32 0
6 *1201:A1 *488:108 0
7 *1578:A *488:51 4.82863e-05
8 *1578:A *488:108 4.75576e-05
9 *1203:B1 *1201:A1 0.000235573
10 *1203:B1 *360:6 0.000158066
11 *1344:A *1201:A1 0
12 *1527:D *1201:A1 0
13 *163:203 *1578:A 5.83373e-05
14 *167:142 *1578:A 2.11084e-05
15 *268:86 *1578:A 9.29751e-06
16 *278:31 *1201:A1 6.4422e-05
17 *332:10 *1201:A1 0
*RES
1 *1503:Q *360:6 3.085 
2 *360:6 *1578:A 7.43 
3 *360:6 *1201:A1 12.215 
*END

*D_NET *361 0.00195288
*CONN
*I *1597:A I *D sky130_fd_sc_hd__dlygate4sd3_1
*I *1260:A1 I *D sky130_fd_sc_hd__a22o_1
*I *1504:Q O *D sky130_fd_sc_hd__dfxtp_1
*CAP
1 *1597:A 4.35733e-05
2 *1260:A1 0.000231132
3 *1504:Q 0.000137759
4 *361:8 0.000412464
5 *1260:A1 *1347:A0 0.00013015
6 *1597:A *1347:A0 3.86607e-05
7 *1215:A2 *1260:A1 0.000119251
8 *1260:B2 *1260:A1 0.000154982
9 *1266:A2 *1260:A1 0
10 *1266:A2 *1597:A 0
11 *175:74 *1260:A1 0.000363093
12 *175:74 *1597:A 0.000109989
13 *245:102 *1260:A1 1.54665e-05
14 *345:12 *361:8 0.000196364
*RES
1 *1504:Q *361:8 5.43 
2 *361:8 *1260:A1 9.525 
3 *361:8 *1597:A 4.98 
*END

*D_NET *362 0.00138638
*CONN
*I *1251:A1 I *D sky130_fd_sc_hd__a22o_1
*I *1580:A I *D sky130_fd_sc_hd__dlygate4sd3_1
*I *1505:Q O *D sky130_fd_sc_hd__dfxtp_1
*CAP
1 *1251:A1 5.28301e-05
2 *1580:A 6.43287e-05
3 *1505:Q 0.000132398
4 *362:10 0.000249557
5 *1580:A *1385:A1 4.66108e-05
6 *1580:A *422:66 0.000213622
7 *1284:A *1251:A1 0.000156371
8 *1284:A *362:10 0.000114492
9 *1391:S *1251:A1 8.11492e-05
10 *1391:S *362:10 5.53249e-06
11 *1455:CLK *362:10 4.92935e-05
12 *288:76 *362:10 6.47516e-05
13 *288:100 *1580:A 0.000155444
*RES
1 *1505:Q *362:10 6.12 
2 *362:10 *1580:A 6.12 
3 *362:10 *1251:A1 5.49 
*END

*D_NET *363 0.00131726
*CONN
*I *1565:A I *D sky130_fd_sc_hd__dlygate4sd3_1
*I *1242:A1 I *D sky130_fd_sc_hd__a22o_1
*I *1506:Q O *D sky130_fd_sc_hd__dfxtp_1
*CAP
1 *1565:A 7.01102e-05
2 *1242:A1 0.000159258
3 *1506:Q 8.73179e-05
4 *363:14 0.000316686
5 *1242:A1 *438:96 2.49909e-05
6 *363:14 *1387:A1 1.14192e-05
7 *1240:A1 *1242:A1 0
8 *1240:A1 *363:14 9.12857e-06
9 *1242:A2 *1242:A1 0
10 *1242:B2 *1242:A1 1.89685e-05
11 *1387:S *363:14 1.77945e-05
12 *158:135 *1242:A1 1.79536e-05
13 *167:65 *1242:A1 4.66108e-05
14 *245:85 *1565:A 0.000146518
15 *245:85 *363:14 0.000139636
16 *288:100 *363:14 3.72007e-05
17 *288:111 *363:14 1.91597e-05
18 *309:23 *1242:A1 0.000194505
*RES
1 *1506:Q *363:14 7.88 
2 *363:14 *1242:A1 8.81 
3 *363:14 *1565:A 3.085 
*END

*D_NET *364 0.000823704
*CONN
*I *1554:A I *D sky130_fd_sc_hd__dlygate4sd3_1
*I *1233:A1 I *D sky130_fd_sc_hd__a22o_1
*I *1507:Q O *D sky130_fd_sc_hd__dfxtp_1
*CAP
1 *1554:A 0.000115984
2 *1233:A1 0
3 *1507:Q 0.000137804
4 *364:8 0.000253788
5 *1554:A *444:46 4.66826e-05
6 *364:8 *1233:B1 4.82919e-05
7 *1233:B2 *364:8 2.75145e-05
8 *1234:B1 *364:8 1.37328e-05
9 *158:83 *1554:A 0
10 *158:91 *1554:A 3.25831e-05
11 *167:25 *1554:A 0.000141606
12 *330:16 *364:8 5.71701e-06
*RES
1 *1507:Q *364:8 3.445 
2 *364:8 *1233:A1 1.6 
3 *364:8 *1554:A 8.03 
*END

*D_NET *365 0.00127419
*CONN
*I *1224:A1 I *D sky130_fd_sc_hd__a22o_1
*I *1571:A I *D sky130_fd_sc_hd__dlygate4sd3_1
*I *1508:Q O *D sky130_fd_sc_hd__dfxtp_1
*CAP
1 *1224:A1 9.66095e-05
2 *1571:A 0
3 *1508:Q 0.000243736
4 *365:16 0.000340345
5 *1224:A1 *438:42 4.82919e-05
6 *1224:A1 *438:75 3.83041e-05
7 *1224:A1 *455:48 9.80032e-06
8 *365:16 *438:42 0
9 *1224:B2 *1224:A1 8.8266e-05
10 *1224:B2 *365:16 8.8266e-05
11 *1284:A *365:16 0.000136587
12 *1458:CLK *365:16 7.21296e-06
13 *1458:D *365:16 9.14729e-05
14 *333:16 *365:16 8.53011e-05
15 *349:8 *365:16 0
*RES
1 *1508:Q *365:16 10.715 
2 *365:16 *1571:A 1.6 
3 *365:16 *1224:A1 3.895 
*END

*D_NET *366 0.00104949
*CONN
*I *1215:A1 I *D sky130_fd_sc_hd__a22o_1
*I *1602:A I *D sky130_fd_sc_hd__dlygate4sd3_1
*I *1509:Q O *D sky130_fd_sc_hd__dfxtp_1
*CAP
1 *1215:A1 0.000197648
2 *1602:A 0.000211157
3 *1509:Q 0
4 *366:4 0.000408804
5 *1602:A *1300:A0 2.75145e-05
6 *1215:A2 *1215:A1 2.79099e-05
7 *1221:B2 *1215:A1 8.04442e-05
8 *1258:A1 *1215:A1 6.7446e-05
9 *1301:A *1215:A1 3.64998e-06
10 *165:90 *1215:A1 2.49143e-05
*RES
1 *1509:Q *366:4 1.6 
2 *366:4 *1602:A 4.735 
3 *366:4 *1215:A1 9.035 
*END

*D_NET *367 0.00135808
*CONN
*I *1206:A1 I *D sky130_fd_sc_hd__a22o_1
*I *1593:A I *D sky130_fd_sc_hd__dlygate4sd3_1
*I *1510:Q O *D sky130_fd_sc_hd__dfxtp_1
*CAP
1 *1206:A1 0.000258713
2 *1593:A 0.000205926
3 *1510:Q 0
4 *367:4 0.000464639
5 *1206:A1 *1395:A0 0.000173959
6 *1471:D *1206:A1 6.5525e-05
7 *331:38 *1206:A1 8.96962e-05
8 *331:46 *1206:A1 3.68682e-05
9 *331:46 *1593:A 1.37328e-05
10 *331:105 *1206:A1 4.90227e-05
*RES
1 *1510:Q *367:4 1.6 
2 *367:4 *1593:A 4.735 
3 *367:4 *1206:A1 11.6 
*END

*D_NET *368 0.00316157
*CONN
*I *1193:A1 I *D sky130_fd_sc_hd__a22o_1
*I *1600:A I *D sky130_fd_sc_hd__dlygate4sd3_1
*I *1511:Q O *D sky130_fd_sc_hd__dfxtp_1
*CAP
1 *1193:A1 0.000499205
2 *1600:A 6.29906e-05
3 *1511:Q 0.000232421
4 *368:10 0.000794616
5 *1193:A1 *1652:A 0.000632721
6 *368:10 *1652:A 0.000135002
7 *1193:B1 *1193:A1 1.91597e-05
8 *1193:B2 *1193:A1 0.000160641
9 *1494:D *1193:A1 0.00013475
10 *168:38 *1193:A1 0.000119207
11 *258:14 *1193:A1 1.47347e-05
12 *268:75 *1193:A1 0.000109464
13 *331:38 *1193:A1 0
14 *331:38 *368:10 0
15 *331:46 *368:10 0.000122701
16 *331:48 *368:10 0.000123955
*RES
1 *1511:Q *368:10 7.41 
2 *368:10 *1600:A 4.395 
3 *368:10 *1193:A1 14.91 
*END

*D_NET *369 0.00177741
*CONN
*I *1613:A I *D sky130_fd_sc_hd__dlygate4sd3_1
*I *1262:A I *D sky130_fd_sc_hd__inv_2
*I *1512:Q O *D sky130_fd_sc_hd__dfxtp_1
*CAP
1 *1613:A 0.000206458
2 *1262:A 0.000500329
3 *1512:Q 0
4 *369:4 0.000706788
5 *1262:A *1402:A0 3.37166e-05
6 *1262:A *401:36 0.00011852
7 *1613:A *1402:A0 2.75145e-05
8 *1263:A2 *1262:A 7.4027e-05
9 *1512:D *1262:A 0.000110059
*RES
1 *1512:Q *369:4 1.6 
2 *369:4 *1262:A 12.26 
3 *369:4 *1613:A 4.735 
*END

*D_NET *370 0.00112492
*CONN
*I *1605:A I *D sky130_fd_sc_hd__dlygate4sd3_1
*I *1253:A I *D sky130_fd_sc_hd__inv_2
*I *1513:Q O *D sky130_fd_sc_hd__dfxtp_1
*CAP
1 *1605:A 5.3971e-05
2 *1253:A 0.000228269
3 *1513:Q 0.000137397
4 *370:10 0.000419637
5 *1253:A *373:8 2.28514e-05
6 *1253:A *422:14 7.87426e-05
7 *1605:A *422:14 0.000120186
8 *370:10 *422:30 1.37328e-05
9 *1254:A2 *1253:A 1.15087e-05
10 *1284:A *1253:A 0
11 *1284:A *1605:A 0
12 *1404:S *1253:A 0
13 *1405:A *370:10 1.7386e-05
14 *334:32 *1253:A 2.12396e-05
*RES
1 *1513:Q *370:10 5.865 
2 *370:10 *1253:A 7.17 
3 *370:10 *1605:A 4.98 
*END

*D_NET *371 0.00070186
*CONN
*I *1608:A I *D sky130_fd_sc_hd__dlygate4sd3_1
*I *1244:A I *D sky130_fd_sc_hd__inv_2
*I *1514:Q O *D sky130_fd_sc_hd__dfxtp_1
*CAP
1 *1608:A 0.000131141
2 *1244:A 5.0447e-05
3 *1514:Q 2.97084e-05
4 *371:6 0.000211296
5 *1265:A2 *1608:A 8.65961e-05
6 *1520:CLK *1244:A 1.85674e-05
7 *176:77 *1608:A 4.92096e-05
8 *319:84 *1608:A 0
9 *336:133 *371:6 0.000124895
*RES
1 *1514:Q *371:6 2.74 
2 *371:6 *1244:A 2.665 
3 *371:6 *1608:A 8.03 
*END

*D_NET *372 0.000417557
*CONN
*I *1603:A I *D sky130_fd_sc_hd__dlygate4sd3_1
*I *1235:A I *D sky130_fd_sc_hd__inv_2
*I *1515:Q O *D sky130_fd_sc_hd__dfxtp_1
*CAP
1 *1603:A 5.24411e-05
2 *1235:A 2.0132e-05
3 *1515:Q 7.85822e-05
4 *372:12 0.000151155
5 *372:12 *1408:A0 0
6 *1236:A2 *1603:A 8.64599e-05
7 *1336:A *372:12 2.87867e-05
8 *1409:A *372:12 0
*RES
1 *1515:Q *372:12 7.085 
2 *372:12 *1235:A 1.96 
3 *372:12 *1603:A 2.74 
*END

*D_NET *373 0.000872966
*CONN
*I *1226:A I *D sky130_fd_sc_hd__inv_2
*I *1598:A I *D sky130_fd_sc_hd__dlygate4sd3_1
*I *1516:Q O *D sky130_fd_sc_hd__dfxtp_1
*CAP
1 *1226:A 2.59811e-05
2 *1598:A 0.000131737
3 *1516:Q 0.000111062
4 *373:8 0.00026878
5 *1253:A *373:8 2.28514e-05
6 *1254:A2 *373:8 8.65905e-05
7 *1284:A *1226:A 0
8 *1284:A *1598:A 0
9 *1404:S *1226:A 2.7881e-05
10 *1404:S *1598:A 5.98203e-05
11 *1410:S *1598:A 8.65905e-05
12 *299:46 *1598:A 4.66108e-05
13 *334:32 *373:8 5.062e-06
*RES
1 *1516:Q *373:8 5.085 
2 *373:8 *1598:A 6.12 
3 *373:8 *1226:A 4.215 
*END

*D_NET *374 0.000975257
*CONN
*I *1604:A I *D sky130_fd_sc_hd__dlygate4sd3_1
*I *1217:A I *D sky130_fd_sc_hd__inv_2
*I *1517:Q O *D sky130_fd_sc_hd__dfxtp_1
*CAP
1 *1604:A 0.000269907
2 *1217:A 0.000150941
3 *1517:Q 0
4 *374:4 0.000420847
5 *1217:A *1412:A0 2.80029e-05
6 *1604:A *1412:A0 1.33293e-05
7 *1218:A2 *1217:A 9.22308e-05
*RES
1 *1517:Q *374:4 1.6 
2 *374:4 *1217:A 8.03 
3 *374:4 *1604:A 4.735 
*END

*D_NET *375 0.00143319
*CONN
*I *1208:A I *D sky130_fd_sc_hd__inv_2
*I *1609:A I *D sky130_fd_sc_hd__dlygate4sd3_1
*I *1518:Q O *D sky130_fd_sc_hd__dfxtp_1
*CAP
1 *1208:A 0.000311557
2 *1609:A 0.000125489
3 *1518:Q 0
4 *375:6 0.000437046
5 *1208:A *1270:A2 4.89395e-05
6 *1208:A *1270:B1 6.14709e-05
7 *1208:A *1646:A 6.29313e-05
8 *1208:A *413:20 8.35157e-05
9 *1208:A *431:16 1.7635e-05
10 *1609:A *1646:A 0.000103434
11 *1415:A *1208:A 4.43544e-05
12 *1415:A *1609:A 0.000101706
13 *1463:D *1208:A 3.51072e-05
*RES
1 *1518:Q *375:6 3.6 
2 *375:6 *1609:A 6.81 
3 *375:6 *1208:A 9.585 
*END

*D_NET *376 0.00138751
*CONN
*I *1197:A I *D sky130_fd_sc_hd__inv_2
*I *1611:A I *D sky130_fd_sc_hd__dlygate4sd3_1
*I *1519:Q O *D sky130_fd_sc_hd__dfxtp_1
*CAP
1 *1197:A 0.000413978
2 *1611:A 0.000101017
3 *1519:Q 0
4 *376:6 0.000514994
5 *1197:A *1646:A 4.70343e-05
6 *1197:A *413:20 6.00003e-05
7 *1611:A *1646:A 9.06802e-05
8 *1611:A *413:20 0.000134588
9 underrun *1611:A 1.93834e-05
10 *1198:A1 *1197:A 5.83121e-06
*RES
1 *1519:Q *376:6 3.6 
2 *376:6 *1611:A 6.705 
3 *376:6 *1197:A 9.915 
*END

*D_NET *377 0.000961936
*CONN
*I *1576:A I *D sky130_fd_sc_hd__dlygate4sd3_1
*I *1265:A1 I *D sky130_fd_sc_hd__a211o_1
*I *1520:Q O *D sky130_fd_sc_hd__dfxtp_1
*CAP
1 *1576:A 0.000105647
2 *1265:A1 0.000143667
3 *1520:Q 0.000120931
4 *377:10 0.000370244
5 *377:10 *1420:A0 5.13155e-05
6 *1263:A2 *377:10 0
7 *1265:A2 *1265:A1 2.7919e-05
8 *1265:B1 *1265:A1 9.53428e-06
9 *1265:B1 *377:10 0
10 *1265:C1 *1265:A1 2.13852e-05
11 *1266:B2 *1265:A1 5.07419e-05
12 *1266:B2 *1576:A 6.05513e-05
13 *1266:B2 *377:10 0
14 *1403:A *377:10 0
15 *1421:A *377:10 0
16 *1512:D *1576:A 0
*RES
1 *1520:Q *377:10 7.745 
2 *377:10 *1265:A1 4.135 
3 *377:10 *1576:A 3.445 
*END

*D_NET *378 0.00182161
*CONN
*I *1256:A1 I *D sky130_fd_sc_hd__a211o_1
*I *1559:A I *D sky130_fd_sc_hd__dlygate4sd3_1
*I *1521:Q O *D sky130_fd_sc_hd__dfxtp_1
*CAP
1 *1256:A1 0.000145854
2 *1559:A 0
3 *1521:Q 0.000342605
4 *378:14 0.000488458
5 *378:14 *1422:A0 0.00013193
6 *1227:A1 *378:14 0.000188785
7 *1229:A2 *1256:A1 6.44049e-05
8 *1229:A2 *378:14 0.000197826
9 *1254:A1 *378:14 3.82741e-05
10 *1256:A2 *1256:A1 9.53428e-06
11 *1257:B2 *378:14 0
12 *1428:S *378:14 3.23391e-05
13 *172:110 *1256:A1 2.11084e-05
14 *299:46 *378:14 0.000160488
*RES
1 *1521:Q *378:14 12.335 
2 *378:14 *1559:A 1.6 
3 *378:14 *1256:A1 4.405 
*END

*D_NET *379 0.0023609
*CONN
*I *1582:A I *D sky130_fd_sc_hd__dlygate4sd3_1
*I *1247:A1 I *D sky130_fd_sc_hd__a211o_1
*I *1522:Q O *D sky130_fd_sc_hd__dfxtp_1
*CAP
1 *1582:A 0.000613626
2 *1247:A1 0.000160615
3 *1522:Q 0.000108249
4 *379:6 0.000882489
5 *1247:A1 *1651:A 0.000206108
6 *1247:A1 *433:18 0.000123751
7 *1247:A1 *433:20 9.0286e-05
8 *1265:A2 *1582:A 5.748e-05
9 *1265:A2 *379:6 1.13785e-05
10 *1522:CLK *1582:A 8.85876e-05
11 *1522:D *1582:A 7.70553e-06
12 *172:98 *1247:A1 7.9642e-06
13 *172:110 *379:6 2.65814e-06
*RES
1 *1522:Q *379:6 2.74 
2 *379:6 *1247:A1 10.295 
3 *379:6 *1582:A 8.875 
*END

*D_NET *380 0.000882298
*CONN
*I *1585:A I *D sky130_fd_sc_hd__dlygate4sd3_1
*I *1238:A1 I *D sky130_fd_sc_hd__a211o_1
*I *1523:Q O *D sky130_fd_sc_hd__dfxtp_1
*CAP
1 *1585:A 8.22891e-05
2 *1238:A1 4.31576e-05
3 *1523:Q 0.000154204
4 *380:6 0.000279651
5 *1238:B1 *1238:A1 0.000160665
6 *172:26 *1238:A1 0.000162332
*RES
1 *1523:Q *380:6 3.43 
2 *380:6 *1238:A1 7.49 
3 *380:6 *1585:A 2.755 
*END

*D_NET *381 0.00132197
*CONN
*I *1601:A I *D sky130_fd_sc_hd__dlygate4sd3_1
*I *1229:A1 I *D sky130_fd_sc_hd__a211o_1
*I *1524:Q O *D sky130_fd_sc_hd__dfxtp_1
*CAP
1 *1601:A 5.08107e-05
2 *1229:A1 8.27916e-05
3 *1524:Q 0.000104792
4 *381:12 0.000238394
5 *381:12 *1428:A0 3.86607e-05
6 *381:12 *422:30 8.65961e-05
7 *381:12 *455:78 1.52945e-05
8 *1227:B1 *381:12 0.000114492
9 *1229:A2 *1229:A1 0.000264794
10 *1229:A2 *1601:A 0.00014766
11 *1229:B1 *1229:A1 4.50808e-05
12 *1229:B1 *1601:A 4.60123e-05
13 *1229:C1 *1229:A1 8.65961e-05
*RES
1 *1524:Q *381:12 7.775 
2 *381:12 *1229:A1 4.135 
3 *381:12 *1601:A 3.085 
*END

*D_NET *382 0.00148608
*CONN
*I *1562:A I *D sky130_fd_sc_hd__dlygate4sd3_1
*I *1220:A1 I *D sky130_fd_sc_hd__a211o_1
*I *1525:Q O *D sky130_fd_sc_hd__dfxtp_1
*CAP
1 *1562:A 0.000136507
2 *1220:A1 9.16971e-05
3 *1525:Q 3.48335e-05
4 *382:10 0.000263038
5 *1220:A1 *425:28 0.000226961
6 *1562:A *425:28 0.000333876
7 *160:150 *382:10 0.000116158
8 *166:120 *1220:A1 2.39856e-05
9 *166:120 *1562:A 1.56428e-05
10 *166:120 *382:10 0.000116158
11 *172:53 *1220:A1 3.26889e-05
12 *172:66 *1220:A1 9.45279e-05
*RES
1 *1525:Q *382:10 6.98 
2 *382:10 *1220:A1 4.135 
3 *382:10 *1562:A 4.81 
*END

*D_NET *383 0.00102656
*CONN
*I *1211:A1 I *D sky130_fd_sc_hd__a211o_1
*I *1579:A I *D sky130_fd_sc_hd__dlygate4sd3_1
*I *1526:Q O *D sky130_fd_sc_hd__dfxtp_1
*CAP
1 *1211:A1 8.5438e-05
2 *1579:A 0.00017055
3 *1526:Q 0
4 *383:4 0.000255988
5 *1211:A1 *1432:A0 8.41279e-05
6 *1211:C1 *1211:A1 2.44698e-05
7 *165:139 *1211:A1 4.42895e-05
8 *165:139 *1579:A 4.65865e-05
9 *166:120 *1211:A1 0.000154804
10 *299:135 *1579:A 0.00016031
*RES
1 *1526:Q *383:4 1.6 
2 *383:4 *1579:A 4.825 
3 *383:4 *1211:A1 8.165 
*END

*D_NET *384 0.00101674
*CONN
*I *1563:A I *D sky130_fd_sc_hd__dlygate4sd3_1
*I *1202:A1 I *D sky130_fd_sc_hd__a211o_1
*I *1527:Q O *D sky130_fd_sc_hd__dfxtp_1
*CAP
1 *1563:A 9.19889e-05
2 *1202:A1 0.000158373
3 *1527:Q 3.81923e-05
4 *384:10 0.000288554
5 *384:10 *1434:A0 2.87867e-05
6 *1202:A2 *1202:A1 0.000200615
7 *1202:B1 *1202:A1 4.89503e-05
8 *1202:B1 *1563:A 6.58423e-05
9 *1434:S *384:10 0
10 *166:78 *384:10 9.54399e-05
*RES
1 *1527:Q *384:10 6.725 
2 *384:10 *1202:A1 4.48 
3 *384:10 *1563:A 3.1 
*END

*D_NET *385 0.00190492
*CONN
*I *1575:A I *D sky130_fd_sc_hd__dlygate4sd3_1
*I *1264:B2 I *D sky130_fd_sc_hd__a22o_1
*I *1528:Q O *D sky130_fd_sc_hd__dfxtp_1
*CAP
1 *1575:A 0.000246268
2 *1264:B2 0.000234856
3 *1528:Q 0
4 *385:4 0.000481124
5 *1575:A *1438:A0 0.000196077
6 *1264:A2 *1264:B2 4.89395e-05
7 *1438:S *1575:A 0.000308018
8 *1496:D *1575:A 0.000196029
9 *319:84 *1264:B2 0.000111315
10 *319:84 *1575:A 5.34565e-05
11 *353:6 *1264:B2 2.88357e-05
*RES
1 *1528:Q *385:4 1.6 
2 *385:4 *1264:B2 9.845 
3 *385:4 *1575:A 8.185 
*END

*D_NET *386 0.00250766
*CONN
*I *1255:B2 I *D sky130_fd_sc_hd__a22o_1
*I *1555:A I *D sky130_fd_sc_hd__dlygate4sd3_1
*I *1529:Q O *D sky130_fd_sc_hd__dfxtp_1
*CAP
1 *1255:B2 0.000394397
2 *1555:A 0
3 *1529:Q 0.00014862
4 *386:12 0.000543017
5 *1255:B2 *1586:A 0.000161204
6 *1255:B2 *1651:A 0.000111603
7 *1255:B2 *425:71 0.000507936
8 *1255:B2 *433:14 0
9 *386:12 *1440:A0 0
10 *386:12 *1586:A 8.1854e-05
11 *386:12 *425:71 0.000201508
12 *1443:A *1255:B2 4.82919e-05
13 *1498:D *1255:B2 6.83917e-05
14 *1530:CLK *1255:B2 0.000180459
15 *1530:D *1255:B2 6.03814e-05
*RES
1 *1529:Q *386:12 9.065 
2 *386:12 *1555:A 1.6 
3 *386:12 *1255:B2 16.415 
*END

*D_NET *387 0.00178232
*CONN
*I *1586:A I *D sky130_fd_sc_hd__dlygate4sd3_1
*I *1246:B2 I *D sky130_fd_sc_hd__a22o_1
*I *1530:Q O *D sky130_fd_sc_hd__dfxtp_1
*CAP
1 *1586:A 0.000251996
2 *1246:B2 0.000476008
3 *1530:Q 0
4 *387:4 0.000728004
5 *1586:A *1442:A0 2.87867e-05
6 *1255:B2 *1586:A 0.000161204
7 *1530:CLK *1246:B2 3.04064e-05
8 *1530:D *1246:B2 1.86443e-05
9 *176:87 *1246:B2 5.4155e-06
10 *386:12 *1586:A 8.1854e-05
*RES
1 *1530:Q *387:4 1.6 
2 *387:4 *1246:B2 8.29 
3 *387:4 *1586:A 10.4 
*END

*D_NET *388 0.00084659
*CONN
*I *1237:B2 I *D sky130_fd_sc_hd__a22o_1
*I *1619:A I *D sky130_fd_sc_hd__dlygate4sd3_1
*I *1531:Q O *D sky130_fd_sc_hd__dfxtp_1
*CAP
1 *1237:B2 2.25281e-05
2 *1619:A 0
3 *1531:Q 0.000124141
4 *388:8 0.000146669
5 *175:14 *1237:B2 8.23457e-05
6 *175:14 *388:8 0.000276619
7 *176:24 *1237:B2 7.14699e-05
8 *176:24 *388:8 0.000122817
*RES
1 *1531:Q *388:8 4.735 
2 *388:8 *1619:A 1.6 
3 *388:8 *1237:B2 2.395 
*END

*D_NET *389 0.00163547
*CONN
*I *1561:A I *D sky130_fd_sc_hd__dlygate4sd3_1
*I *1228:B2 I *D sky130_fd_sc_hd__a22o_1
*I *1532:Q O *D sky130_fd_sc_hd__dfxtp_1
*CAP
1 *1561:A 3.38829e-05
2 *1228:B2 0.000117488
3 *1532:Q 0.000317219
4 *389:8 0.00046859
5 *1228:B2 *1446:A1 2.69153e-05
6 *1228:B2 *425:55 6.01223e-05
7 *1228:B2 *437:122 0.000177017
8 *1561:A *425:55 6.06078e-05
9 *1561:A *437:122 0.000117698
10 *1228:B1 *1228:B2 2.08971e-05
11 *1446:S *1228:B2 7.1624e-05
12 *334:95 *389:8 2.01737e-05
13 *334:104 *389:8 0.000143235
*RES
1 *1532:Q *389:8 7.5 
2 *389:8 *1228:B2 6.81 
3 *389:8 *1561:A 4.98 
*END

*D_NET *390 0.00130906
*CONN
*I *1219:B2 I *D sky130_fd_sc_hd__a22o_1
*I *1553:A I *D sky130_fd_sc_hd__dlygate4sd3_1
*I *1533:Q O *D sky130_fd_sc_hd__dfxtp_1
*CAP
1 *1219:B2 0.000120657
2 *1553:A 4.39506e-05
3 *1533:Q 0.000135575
4 *390:12 0.000300182
5 *1553:A *1357:A0 2.86975e-05
6 *1533:CLK *390:12 4.89295e-05
7 *1572:A *1219:B2 4.82863e-05
8 *160:97 *1219:B2 0.000173799
9 *160:97 *1553:A 9.96241e-05
10 *268:86 *390:12 0.000137571
11 *332:46 *390:12 4.94474e-05
12 *332:74 *1219:B2 0.000122337
*RES
1 *1533:Q *390:12 8.03 
2 *390:12 *1553:A 2.74 
3 *390:12 *1219:B2 4.48 
*END

*D_NET *391 0.00245614
*CONN
*I *1548:A I *D sky130_fd_sc_hd__dlygate4sd3_1
*I *1210:B2 I *D sky130_fd_sc_hd__a22o_1
*I *1534:Q O *D sky130_fd_sc_hd__dfxtp_1
*CAP
1 *1548:A 0.000173163
2 *1210:B2 0.000157025
3 *1534:Q 0.000232231
4 *391:12 0.000562419
5 *1548:A *1450:A0 0.000105416
6 *1210:A1 *1210:B2 0.000104339
7 *1210:A1 *1548:A 1.19928e-05
8 *1210:A1 *391:12 0.00026338
9 *1210:A2 *1210:B2 4.77757e-05
10 *1211:C1 *1210:B2 3.63206e-05
11 *1211:C1 *1548:A 0.000487319
12 *1451:A *1210:B2 8.35106e-05
13 *1526:CLK *1548:A 8.9336e-05
14 *175:33 *391:12 3.35022e-05
15 *176:34 *1210:B2 5.06989e-05
16 *176:45 *1210:B2 1.05984e-05
17 *176:45 *1548:A 7.11235e-06
*RES
1 *1534:Q *391:12 8.81 
2 *391:12 *1210:B2 5.17 
3 *391:12 *1548:A 6.91 
*END

*D_NET *392 0.00133343
*CONN
*I *1201:B2 I *D sky130_fd_sc_hd__a22o_1
*I *1558:A I *D sky130_fd_sc_hd__dlygate4sd3_1
*I *1535:Q O *D sky130_fd_sc_hd__dfxtp_1
*CAP
1 *1201:B2 8.77204e-05
2 *1558:A 0
3 *1535:Q 0.000356973
4 *392:8 0.000444693
5 *392:8 *1379:A1 8.73389e-06
6 *1201:B1 *1201:B2 1.37328e-05
7 *1201:B1 *392:8 0
8 *1453:A *392:8 2.86975e-05
9 *319:27 *392:8 0.000158536
10 *319:38 *392:8 0.000234349
*RES
1 *1535:Q *392:8 7.585 
2 *392:8 *1558:A 1.6 
3 *392:8 *1201:B2 3.1 
*END

*D_NET *393 0.00199541
*CONN
*I *1261:A1 I *D sky130_fd_sc_hd__a21o_1
*I *1569:A I *D sky130_fd_sc_hd__dlygate4sd3_1
*I *1454:Q O *D sky130_fd_sc_hd__dfxtp_1
*CAP
1 *1261:A1 0.000125814
2 *1569:A 0
3 *1454:Q 0.000455141
4 *393:14 0.000580955
5 *393:14 *401:56 8.0901e-06
6 *393:14 *401:76 6.3124e-06
7 *1261:A2 *1261:A1 6.93645e-05
8 *1261:B1 *1261:A1 0.000266436
9 *1261:B1 *393:14 7.23602e-05
10 *1480:CLK *1261:A1 0.000219672
11 *1480:CLK *393:14 1.23707e-05
12 *160:150 *393:14 7.23602e-05
13 *335:110 *393:14 0.000106534
*RES
1 *1454:Q *393:14 11.33 
2 *393:14 *1569:A 1.6 
3 *393:14 *1261:A1 5.275 
*END

*D_NET *394 0.00150922
*CONN
*I *1588:A I *D sky130_fd_sc_hd__dlygate4sd3_1
*I *1252:A1 I *D sky130_fd_sc_hd__a21o_1
*I *1455:Q O *D sky130_fd_sc_hd__dfxtp_1
*CAP
1 *1588:A 0.000218567
2 *1252:A1 0.000435362
3 *1455:Q 0
4 *394:4 0.000653929
5 *1277:A *1252:A1 0
6 *158:91 *1252:A1 0.000138551
7 *158:102 *1252:A1 9.50342e-06
8 *288:100 *1252:A1 5.33085e-05
*RES
1 *1455:Q *394:4 1.6 
2 *394:4 *1252:A1 11.135 
3 *394:4 *1588:A 4.735 
*END

*D_NET *395 0.00195993
*CONN
*I *1551:A I *D sky130_fd_sc_hd__dlygate4sd3_1
*I *1243:A1 I *D sky130_fd_sc_hd__a21o_1
*I *1456:Q O *D sky130_fd_sc_hd__dfxtp_1
*CAP
1 *1551:A 0.000158375
2 *1243:A1 0.000344578
3 *1456:Q 0
4 *395:4 0.000502953
5 *1243:A1 *1651:A 0.000234045
6 *1551:A *1294:A0 4.77757e-05
7 *1551:A *438:96 0.000132225
8 *1456:D *1243:A1 2.99026e-05
9 *1545:A *1243:A1 0.000237205
10 *245:102 *1551:A 0.00027287
*RES
1 *1456:Q *395:4 1.6 
2 *395:4 *1243:A1 11.375 
3 *395:4 *1551:A 9.5 
*END

*D_NET *396 0.000823475
*CONN
*I *1234:A1 I *D sky130_fd_sc_hd__a21o_1
*I *1620:A I *D sky130_fd_sc_hd__dlygate4sd3_1
*I *1457:Q O *D sky130_fd_sc_hd__dfxtp_1
*CAP
1 *1234:A1 4.11226e-05
2 *1620:A 0
3 *1457:Q 6.55798e-05
4 *396:8 0.000106702
5 *1234:A2 *1234:A1 8.77516e-05
6 *1234:A2 *396:8 0.000155248
7 *1234:B1 *1234:A1 2.56353e-05
8 *219:20 *1234:A1 6.62088e-05
9 *219:20 *396:8 0.000275226
*RES
1 *1457:Q *396:8 4.48 
2 *396:8 *1620:A 1.6 
3 *396:8 *1234:A1 3.1 
*END

*D_NET *397 0.000639089
*CONN
*I *1552:A I *D sky130_fd_sc_hd__dlygate4sd3_1
*I *1225:A1 I *D sky130_fd_sc_hd__a21o_1
*I *1458:Q O *D sky130_fd_sc_hd__dfxtp_1
*CAP
1 *1552:A 6.18555e-05
2 *1225:A1 0.00020306
3 *1458:Q 0
4 *397:4 0.000264915
5 *1225:A1 *438:42 3.89366e-05
6 *167:38 *1225:A1 7.03219e-05
*RES
1 *1458:Q *397:4 1.6 
2 *397:4 *1225:A1 8.3 
3 *397:4 *1552:A 2.665 
*END

*D_NET *398 0.00111192
*CONN
*I *1216:A1 I *D sky130_fd_sc_hd__a21o_1
*I *1570:A I *D sky130_fd_sc_hd__dlygate4sd3_1
*I *1459:Q O *D sky130_fd_sc_hd__dfxtp_1
*CAP
1 *1216:A1 0.000134716
2 *1570:A 0.00029551
3 *1459:Q 0
4 *398:4 0.000430227
5 *1216:B1 *1570:A 3.1889e-05
6 *1221:A1 *1216:A1 0.000196056
7 *1259:A *1570:A 2.3526e-05
8 *299:109 *1570:A 0
*RES
1 *1459:Q *398:4 1.6 
2 *398:4 *1570:A 10.16 
3 *398:4 *1216:A1 3.43 
*END

*D_NET *399 0.00302404
*CONN
*I *1589:A I *D sky130_fd_sc_hd__dlygate4sd3_1
*I *1207:A1 I *D sky130_fd_sc_hd__a21o_1
*I *1460:Q O *D sky130_fd_sc_hd__dfxtp_1
*CAP
1 *1589:A 0.00071177
2 *1207:A1 0.000319185
3 *1460:Q 0
4 *399:4 0.00103095
5 *1589:A *477:12 6.30072e-05
6 *1213:S *1589:A 3.42046e-06
7 *1302:S *1207:A1 0.000339851
8 *1303:A *1207:A1 0.000383682
9 *331:114 *1207:A1 8.11966e-05
10 *331:114 *1589:A 2.47079e-05
11 *331:133 *1589:A 6.62684e-05
*RES
1 *1460:Q *399:4 1.6 
2 *399:4 *1207:A1 12.725 
3 *399:4 *1589:A 13.985 
*END

*D_NET *400 0.00206685
*CONN
*I *1194:A1 I *D sky130_fd_sc_hd__a21o_1
*I *1591:A I *D sky130_fd_sc_hd__dlygate4sd3_1
*I *1461:Q O *D sky130_fd_sc_hd__dfxtp_1
*CAP
1 *1194:A1 0.000349836
2 *1591:A 9.51019e-05
3 *1461:Q 0.000177739
4 *400:10 0.000622676
5 *1194:A1 *1361:A1 1.88904e-05
6 *1194:A1 *488:61 1.252e-05
7 *1194:A1 *488:82 0.000182976
8 *1591:A *1304:A0 2.69217e-05
9 *1591:A *488:82 1.53172e-05
10 *400:10 *413:32 8.64565e-05
11 *400:10 *488:82 1.64067e-05
12 *1194:B1 *1194:A1 0.000136877
13 *1207:A2 *1194:A1 4.77719e-05
14 *1302:S *1591:A 0.000269931
15 *1362:A *1194:A1 0
16 *1503:CLK *1194:A1 0
17 *1540:A *1194:A1 0
18 *167:136 *1194:A1 7.42989e-06
*RES
1 *1461:Q *400:10 6.03 
2 *400:10 *1591:A 6.12 
3 *400:10 *1194:A1 10.275 
*END

*D_NET *401 0.012714
*CONN
*I *1402:A1 I *D sky130_fd_sc_hd__mux2_1
*I *1420:A1 I *D sky130_fd_sc_hd__mux2_1
*I *1329:A1 I *D sky130_fd_sc_hd__mux2_1
*I *1290:A1 I *D sky130_fd_sc_hd__mux2_1
*I *1383:A0 I *D sky130_fd_sc_hd__mux2_1
*I *1347:A1 I *D sky130_fd_sc_hd__mux2_1
*I *1438:A1 I *D sky130_fd_sc_hd__mux2_1
*I *1365:A1 I *D sky130_fd_sc_hd__mux2_1
*I *1621:X O *D sky130_fd_sc_hd__clkbuf_2
*CAP
1 *1402:A1 0
2 *1420:A1 0
3 *1329:A1 0.000572732
4 *1290:A1 4.82307e-05
5 *1383:A0 0.000302637
6 *1347:A1 0
7 *1438:A1 0.000223604
8 *1365:A1 0.000214641
9 *1621:X 0.000418505
10 *401:76 0.000808866
11 *401:56 0.000550466
12 *401:54 0.000752294
13 *401:44 0.000768077
14 *401:36 0.0011208
15 *401:8 0.00103168
16 *401:6 0.00168123
17 *1329:A1 *1329:A0 4.85763e-05
18 *1365:A1 *1638:A 2.66935e-05
19 *1365:A1 *433:14 0.000276441
20 *1383:A0 *1347:A0 4.66108e-05
21 *1383:A0 *1383:A1 8.35157e-05
22 *1438:A1 *1638:A 0
23 *401:6 *425:71 0.000209919
24 *401:8 *425:71 0.000175282
25 *401:8 *433:14 0.000431333
26 *401:44 *1420:A0 8.65961e-05
27 *401:56 *1347:A0 6.23576e-05
28 *1245:B1 *401:44 0.000161529
29 *1260:B2 *401:54 0.0002881
30 *1262:A *401:36 0.00011852
31 *1263:A2 *401:36 5.89992e-05
32 *1266:A2 *401:54 0.000420196
33 *1266:B2 *401:36 0
34 *1266:B2 *401:44 0
35 *1329:S *1329:A1 7.63444e-05
36 *1347:S *1383:A0 6.07575e-06
37 *1348:A *1383:A0 0.000101995
38 *1402:S *401:36 9.09788e-06
39 *1402:S *401:44 0.000123606
40 *1439:A *1438:A1 0
41 *1454:D *1329:A1 9.73245e-05
42 *1512:CLK *401:36 9.30787e-05
43 *1567:A *401:54 0.000110683
44 *1595:A *1438:A1 0
45 *1621:A *401:6 5.30673e-05
46 *1625:A *401:8 4.60584e-05
47 *160:150 *401:44 0
48 *165:90 *1290:A1 0.000131017
49 *165:90 *401:54 0
50 *167:84 *1383:A0 4.43682e-05
51 *175:74 *401:54 0
52 *176:87 *1438:A1 0.000175797
53 *258:110 *1329:A1 0.000305039
54 *309:37 *401:54 1.87674e-05
55 *309:54 *1290:A1 0.000131017
56 *309:54 *401:44 1.19928e-05
57 *335:110 *1329:A1 9.04102e-05
58 *335:110 *401:76 8.54281e-05
59 *393:14 *401:56 8.0901e-06
60 *393:14 *401:76 6.3124e-06
*RES
1 *1621:X *401:6 7.225 
2 *401:6 *401:8 8.385 
3 *401:8 *1365:A1 8.99 
4 *401:8 *1438:A1 9.785 
5 *401:6 *401:36 13.58 
6 *401:36 *401:44 9.275 
7 *401:44 *401:54 11.8 
8 *401:54 *401:56 2.865 
9 *401:56 *1347:A1 1.6 
10 *401:56 *1383:A0 6.325 
11 *401:54 *401:76 2.175 
12 *401:76 *1290:A1 7.235 
13 *401:76 *1329:A1 8.95 
14 *401:44 *1420:A1 1.6 
15 *401:36 *1402:A1 3.6 
*END

*D_NET *402 0.00154959
*CONN
*I *1306:A I *D sky130_fd_sc_hd__inv_2
*I *1288:A I *D sky130_fd_sc_hd__buf_4
*I *1622:X O *D sky130_fd_sc_hd__buf_1
*CAP
1 *1306:A 0.000289928
2 *1288:A 8.19276e-05
3 *1622:X 0.000218843
4 *402:6 0.000590698
5 *1288:A *1272:A1 0
6 *1306:A *1645:A 7.2328e-05
7 *402:6 *1645:A 0.000104119
8 *1170:A *1288:A 9.50342e-06
9 *1170:B *1306:A 4.89295e-05
10 *1321:A *1306:A 3.13354e-05
11 *1322:A *1288:A 2.97802e-05
12 *1476:RESET_B *1306:A 2.26739e-05
13 *288:38 *1306:A 4.95266e-05
*RES
1 *1622:X *402:6 4.465 
2 *402:6 *1288:A 7.235 
3 *402:6 *1306:A 10.31 
*END

*D_NET *403 0.000842855
*CONN
*I *1406:A0 I *D sky130_fd_sc_hd__mux2_1
*I *1608:X O *D sky130_fd_sc_hd__dlygate4sd3_1
*CAP
1 *1406:A0 0.000184103
2 *1608:X 0.000184103
3 *1406:A0 *1638:A 0.000136604
4 *1265:A2 *1406:A0 0.000119762
5 *1407:A *1406:A0 8.7829e-05
6 *319:84 *1406:A0 5.80941e-05
7 *336:70 *1406:A0 7.23602e-05
*RES
1 *1608:X *1406:A0 11.25 
*END

*D_NET *404 0.000363807
*CONN
*I *1414:A0 I *D sky130_fd_sc_hd__mux2_1
*I *1609:X O *D sky130_fd_sc_hd__dlygate4sd3_1
*CAP
1 *1414:A0 8.3979e-05
2 *1609:X 8.3979e-05
3 *1414:A0 *477:66 4.77719e-05
4 *1415:A *1414:A0 2.88357e-05
5 *1416:S *1414:A0 0.000119242
*RES
1 *1609:X *1414:A0 5.03 
*END

*D_NET *405 0.000432993
*CONN
*I *1204:A0 I *D sky130_fd_sc_hd__mux2_1
*I *1610:X O *D sky130_fd_sc_hd__dlygate4sd3_1
*CAP
1 *1204:A0 4.02152e-05
2 *1610:X 4.02152e-05
3 *1204:A0 *413:20 6.47326e-05
4 *1204:S *1204:A0 5.30673e-05
5 *1213:S *1204:A0 0.000234763
*RES
1 *1610:X *1204:A0 5.375 
*END

*D_NET *406 0.000440827
*CONN
*I *1416:A0 I *D sky130_fd_sc_hd__mux2_1
*I *1611:X O *D sky130_fd_sc_hd__dlygate4sd3_1
*CAP
1 *1416:A0 0.000162276
2 *1611:X 0.000162276
3 *1416:A0 *1416:A1 4.85763e-05
4 *1416:S *1416:A0 6.76978e-05
*RES
1 *1611:X *1416:A0 5.72 
*END

*D_NET *407 0.00123195
*CONN
*I *1402:A0 I *D sky130_fd_sc_hd__mux2_1
*I *1613:X O *D sky130_fd_sc_hd__dlygate4sd3_1
*CAP
1 *1402:A0 0.000504838
2 *1613:X 0.000504838
3 *1262:A *1402:A0 3.37166e-05
4 *1464:CLK *1402:A0 9.01906e-05
5 *1464:D *1402:A0 7.08493e-05
6 *1613:A *1402:A0 2.75145e-05
*RES
1 *1613:X *1402:A0 15.075 
*END

*D_NET *408 0.00101399
*CONN
*I *1213:A0 I *D sky130_fd_sc_hd__mux2_1
*I *1614:X O *D sky130_fd_sc_hd__dlygate4sd3_1
*CAP
1 *1213:A0 0.000197717
2 *1614:X 0.000197717
3 *1213:A0 *1302:A0 0.000158547
4 *1213:A0 *413:20 0.000163832
5 *1213:S *1213:A0 8.52845e-05
6 *1470:RESET_B *1213:A0 9.37846e-05
7 *254:129 *1213:A0 0.000117112
*RES
1 *1614:X *1213:A0 12.81 
*END

*D_NET *409 0.000758962
*CONN
*I *1222:A0 I *D sky130_fd_sc_hd__mux2_1
*I *1615:X O *D sky130_fd_sc_hd__dlygate4sd3_1
*CAP
1 *1222:A0 0.000107031
2 *1615:X 0.000107031
3 *1222:A0 *1615:A 0.00013413
4 *163:45 *1222:A0 8.23457e-05
5 *254:46 *1222:A0 0.00013413
6 *333:20 *1222:A0 0.000194295
*RES
1 *1615:X *1222:A0 10.665 
*END

*D_NET *410 0.00058023
*CONN
*I *1267:A0 I *D sky130_fd_sc_hd__mux2_1
*I *1616:X O *D sky130_fd_sc_hd__dlygate4sd3_1
*CAP
1 *1267:A0 0.000185028
2 *1616:X 0.000185028
3 *1266:A1 *1267:A0 5.63054e-05
4 *1267:A1 *1267:A0 0.000112743
5 *254:109 *1267:A0 4.11251e-05
6 *254:113 *1267:A0 0
*RES
1 *1616:X *1267:A0 10.32 
*END

*D_NET *411 0.000221719
*CONN
*I *1231:A0 I *D sky130_fd_sc_hd__mux2_1
*I *1617:X O *D sky130_fd_sc_hd__dlygate4sd3_1
*CAP
1 *1231:A0 9.70982e-05
2 *1617:X 9.70982e-05
3 *1231:A0 *420:10 0
4 *163:45 *1231:A0 2.75229e-05
*RES
1 *1617:X *1231:A0 8.52 
*END

*D_NET *412 0.000521859
*CONN
*I *1240:A0 I *D sky130_fd_sc_hd__mux2_1
*I *1618:X O *D sky130_fd_sc_hd__dlygate4sd3_1
*CAP
1 *1240:A0 0.000131798
2 *1618:X 0.000131798
3 *1240:A1 *1240:A0 8.8266e-05
4 *1312:A *1240:A0 4.49611e-05
5 *163:70 *1240:A0 5.05437e-05
6 *254:82 *1240:A0 2.45351e-05
7 *254:109 *1240:A0 4.99567e-05
*RES
1 *1618:X *1240:A0 6.065 
*END

*D_NET *413 0.0139491
*CONN
*I *1325:B I *D sky130_fd_sc_hd__and4b_1
*I *1169:A1 I *D sky130_fd_sc_hd__a21oi_1
*I *1166:B I *D sky130_fd_sc_hd__and3_1
*I *1399:B I *D sky130_fd_sc_hd__and4_1
*I *1272:A1 I *D sky130_fd_sc_hd__a21o_1
*I *1159:D1 I *D sky130_fd_sc_hd__o2111a_1
*I *1623:X O *D sky130_fd_sc_hd__clkbuf_2
*CAP
1 *1325:B 0
2 *1169:A1 1.76911e-05
3 *1166:B 0.000119111
4 *1399:B 0.00011114
5 *1272:A1 0.000561786
6 *1159:D1 0.000284263
7 *1623:X 0.00179714
8 *413:77 0.000271352
9 *413:49 0.000672926
10 *413:36 0.000322596
11 *413:34 0.000212468
12 *413:32 0.00128915
13 *413:20 0.00304671
14 *1159:D1 *1159:C1 0.000463583
15 *1159:D1 *1325:A_N 1.33285e-05
16 *1159:D1 *515:18 0.000196678
17 *1166:B *1166:A 1.9872e-05
18 *1166:B *514:16 2.58336e-05
19 *1272:A1 *1159:C1 0.000133329
20 *1272:A1 *1557:A 0.000114912
21 *1272:A1 *1645:A 0.0001249
22 *1272:A1 *1647:A 0
23 *1272:A1 *427:10 6.73751e-05
24 *1272:A1 *515:14 0
25 *1399:B *1325:A_N 7.08331e-05
26 *413:20 *1270:A1 8.1441e-05
27 *413:20 *1610:A 5.05521e-05
28 *413:20 *1646:A 0
29 *413:20 *477:12 0.000242708
30 *413:36 *1325:A_N 4.77807e-05
31 *413:77 *1647:A 9.51057e-05
32 *413:77 *514:16 2.23611e-05
33 underrun *413:20 5.50989e-05
34 *1166:C *1166:B 2.65814e-06
35 *1170:A *1272:A1 0
36 *1170:B *1166:B 8.64421e-05
37 *1170:B *1272:A1 0.000146311
38 *1170:B *413:77 2.01504e-05
39 *1197:A *413:20 6.00003e-05
40 *1204:A0 *413:20 6.47326e-05
41 *1204:S *413:20 0.000179055
42 *1205:A *413:20 3.13329e-05
43 *1205:A *413:32 4.77769e-05
44 *1208:A *413:20 8.35157e-05
45 *1213:A0 *413:20 0.000163832
46 *1213:S *413:20 5.82121e-05
47 *1214:A *413:20 0.000196058
48 *1288:A *1272:A1 0
49 *1316:A *413:20 0.000290445
50 *1322:A *1166:B 0
51 *1322:A *1169:A1 0
52 *1325:D *413:32 2.05864e-05
53 *1415:A *413:20 0.000263803
54 *1416:S *413:20 0
55 *1461:D *413:32 1.43717e-05
56 *1470:D *413:20 4.89362e-05
57 *1471:D *413:32 1.1392e-05
58 *1476:RESET_B *1272:A1 3.39151e-05
59 *1518:D *413:20 7.1624e-05
60 *1611:A *413:20 0.000134588
61 *148:27 *1166:B 1.87977e-05
62 *148:27 *1272:A1 1.0397e-05
63 *148:34 *413:77 0.000160635
64 *163:203 *413:20 7.67415e-06
65 *163:203 *413:32 0.000308026
66 *245:132 *1159:D1 1.54665e-05
67 *245:132 *413:32 0.000529507
68 *245:132 *413:34 4.71087e-05
69 *245:132 *413:36 2.0187e-05
70 *254:129 *413:20 0
71 *297:14 *1399:B 4.14392e-05
72 *343:10 *413:20 0.000141606
73 *400:10 *413:32 8.64565e-05
*RES
1 *1623:X *413:20 42.23 
2 *413:20 *413:32 25.96 
3 *413:32 *413:34 0.795 
4 *413:34 *413:36 0.795 
5 *413:36 *1159:D1 7.945 
6 *413:36 *413:49 2 
7 *413:49 *1272:A1 14.55 
8 *413:49 *1399:B 6 
9 *413:34 *413:77 7.975 
10 *413:77 *1166:B 4.15 
11 *413:77 *1169:A1 1.96 
12 *413:32 *1325:B 1.6 
*END

*D_NET *414 0.000146603
*CONN
*I *1633:A I *D sky130_fd_sc_hd__clkbuf_4
*I *1287:X O *D sky130_fd_sc_hd__clkbuf_1
*CAP
1 *1633:A 5.5053e-05
2 *1287:X 5.5053e-05
3 *1633:A *1599:A 3.64974e-05
*RES
1 *1287:X *1633:A 8.325 
*END

*D_NET *415 0.000368032
*CONN
*I *1634:A I *D sky130_fd_sc_hd__clkbuf_4
*I *1284:X O *D sky130_fd_sc_hd__clkbuf_1
*CAP
1 *1634:A 0.000171711
2 *1284:X 0.000171711
3 *1634:A *422:14 2.46089e-05
*RES
1 *1284:X *1634:A 9.465 
*END

*D_NET *416 0.00160297
*CONN
*I *1635:A I *D sky130_fd_sc_hd__clkbuf_4
*I *1616:A I *D sky130_fd_sc_hd__dlygate4sd3_1
*I *1464:Q O *D sky130_fd_sc_hd__dfrtp_1
*CAP
1 *1635:A 0.000274247
2 *1616:A 0.000192669
3 *1464:Q 7.98885e-05
4 *416:10 0.000546804
5 *1616:A *431:16 0.000196464
6 *1635:A *431:16 0.000312899
*RES
1 *1464:Q *416:10 4.665 
2 *416:10 *1616:A 7.53 
3 *416:10 *1635:A 10.08 
*END

*D_NET *417 0.000450667
*CONN
*I *1636:A I *D sky130_fd_sc_hd__buf_2
*I *1606:A I *D sky130_fd_sc_hd__dlygate4sd3_1
*I *1465:Q O *D sky130_fd_sc_hd__dfrtp_1
*CAP
1 *1636:A 0
2 *1606:A 8.34489e-05
3 *1465:Q 7.79066e-05
4 *417:8 0.000161356
5 *1606:A *431:16 6.9451e-05
6 *417:8 *431:16 3.56638e-05
7 dout[1] *417:8 2.28415e-05
*RES
1 *1465:Q *417:8 5.235 
2 *417:8 *1606:A 5.49 
3 *417:8 *1636:A 3.6 
*END

*D_NET *418 0.00558934
*CONN
*I *1249:A0 I *D sky130_fd_sc_hd__mux2_1
*I *1637:A I *D sky130_fd_sc_hd__clkbuf_4
*I *1466:Q O *D sky130_fd_sc_hd__dfrtp_1
*CAP
1 *1249:A0 0
2 *1637:A 0.0016022
3 *1466:Q 0.000261336
4 *418:12 0.00186354
5 *1637:A *1286:A_N 0
6 *1637:A *1599:A 0
7 *1637:A *1648:A 0
8 *1637:A *444:12 0.000201503
9 *418:12 *1648:A 0
10 *1276:A *1637:A 0
11 *1286:B *1637:A 0
12 *1466:RESET_B *418:12 3.90192e-05
13 *1474:D *1637:A 9.20907e-05
14 *1479:D *1637:A 6.47516e-05
15 *1491:CLK *1637:A 0
16 *1491:D *1637:A 3.32056e-05
17 *163:24 *418:12 0.000120186
18 *254:8 *1637:A 0.000129234
19 *254:29 *1637:A 0.00102231
20 *254:29 *418:12 9.50342e-06
21 *254:46 *418:12 0.000150453
*RES
1 *1466:Q *418:12 7.77 
2 *418:12 *1637:A 36.75 
3 *418:12 *1249:A0 3.6 
*END

*D_NET *419 0.00465028
*CONN
*I *1638:A I *D sky130_fd_sc_hd__clkbuf_4
*I *1618:A I *D sky130_fd_sc_hd__dlygate4sd3_1
*I *1467:Q O *D sky130_fd_sc_hd__dfrtp_1
*CAP
1 *1638:A 0.00116717
2 *1618:A 9.14055e-05
3 *1467:Q 0
4 *419:4 0.00125857
5 *1638:A *1424:A0 0.000336798
6 *1638:A *1424:A1 8.49205e-05
7 *1638:A *433:14 0.000229559
8 *1365:A1 *1638:A 2.66935e-05
9 *1365:S *1638:A 0
10 *1406:A0 *1638:A 0.000136604
11 *1424:S *1638:A 6.72368e-05
12 *1438:A1 *1638:A 0
13 *1439:A *1638:A 7.28658e-05
14 *1496:D *1638:A 0.000158213
15 *1514:CLK *1638:A 4.49875e-05
16 *1514:D *1638:A 5.01066e-05
17 *172:108 *1618:A 3.3505e-05
18 *278:61 *1618:A 0
19 *319:84 *1638:A 0.000576019
20 *336:66 *1638:A 9.64299e-05
21 *336:70 *1638:A 2.23407e-05
22 *336:87 *1638:A 0.000171405
23 *336:133 *1638:A 2.54431e-05
*RES
1 *1467:Q *419:4 1.6 
2 *419:4 *1618:A 7.085 
3 *419:4 *1638:A 29.765 
*END

*D_NET *420 0.00178526
*CONN
*I *1639:A I *D sky130_fd_sc_hd__clkbuf_4
*I *1617:A I *D sky130_fd_sc_hd__dlygate4sd3_1
*I *1468:Q O *D sky130_fd_sc_hd__dfrtp_1
*CAP
1 *1639:A 0.000723584
2 *1617:A 0
3 *1468:Q 0.000164671
4 *420:10 0.000888255
5 *1231:A0 *420:10 0
6 *1232:A *420:10 8.75013e-06
7 *1513:CLK *1639:A 0
8 *334:55 *1639:A 0
9 *334:55 *420:10 0
*RES
1 *1468:Q *420:10 5.775 
2 *420:10 *1617:A 3.6 
3 *420:10 *1639:A 15.69 
*END

*D_NET *421 0.00271698
*CONN
*I *1640:A I *D sky130_fd_sc_hd__clkbuf_4
*I *1615:A I *D sky130_fd_sc_hd__dlygate4sd3_1
*I *1469:Q O *D sky130_fd_sc_hd__dfrtp_1
*CAP
1 *1640:A 0.000368906
2 *1615:A 0.000270175
3 *1469:Q 7.44203e-05
4 *421:10 0.000713502
5 *1615:A *1355:A0 1.32017e-05
6 *1615:A *455:10 0.000188984
7 *1615:A *455:25 7.3777e-05
8 *421:10 *455:25 4.66108e-05
9 *1222:A0 *1615:A 0.00013413
10 *1232:A *1640:A 6.77417e-05
11 *1313:A *1640:A 8.49205e-05
12 *1468:D *1640:A 3.94592e-05
13 *1492:D *1615:A 9.50342e-06
14 *1492:D *1640:A 0.000141599
15 *1492:D *421:10 8.65905e-05
16 *163:45 *1640:A 0
17 *254:46 *1615:A 0.000152831
18 *254:46 *1640:A 3.31204e-05
19 *254:61 *1640:A 0.000114761
20 *254:82 *1640:A 7.40446e-05
21 *346:16 *1615:A 2.86975e-05
*RES
1 *1469:Q *421:10 5.1 
2 *421:10 *1615:A 10.125 
3 *421:10 *1640:A 11.01 
*END

*D_NET *422 0.0147847
*CONN
*I *1404:A1 I *D sky130_fd_sc_hd__mux2_1
*I *1440:A1 I *D sky130_fd_sc_hd__mux2_1
*I *1367:A1 I *D sky130_fd_sc_hd__mux2_1
*I *1422:A1 I *D sky130_fd_sc_hd__mux2_1
*I *1331:A1 I *D sky130_fd_sc_hd__mux2_1
*I *1292:A1 I *D sky130_fd_sc_hd__mux2_1
*I *1385:A0 I *D sky130_fd_sc_hd__mux2_1
*I *1349:A1 I *D sky130_fd_sc_hd__mux2_1
*I *1624:X O *D sky130_fd_sc_hd__buf_2
*CAP
1 *1404:A1 0
2 *1440:A1 0.000210857
3 *1367:A1 0
4 *1422:A1 1.35604e-05
5 *1331:A1 0.000228224
6 *1292:A1 0
7 *1385:A0 0
8 *1349:A1 0.000178726
9 *1624:X 0.00150151
10 *422:105 0.000471377
11 *422:92 0.000337225
12 *422:66 0.000594392
13 *422:54 0.000510143
14 *422:50 0.00103915
15 *422:30 0.00134348
16 *422:14 0.00206539
17 *1331:A1 *1331:A0 4.77719e-05
18 *1349:A1 *1349:A0 7.00889e-06
19 *1440:A1 *1367:A0 0
20 *422:14 *1404:A0 2.11084e-05
21 *422:14 *1446:A0 0
22 *422:14 *1654:A 0.0005632
23 *422:30 *1404:A0 4.41363e-05
24 *422:30 *425:55 9.37731e-05
25 *422:50 *1428:A0 0
26 *422:50 *425:55 0.000656583
27 *422:50 *438:75 0.000108256
28 *422:50 *455:48 0.00010163
29 *422:50 *455:50 5.23362e-05
30 *422:50 *455:74 0.000314167
31 *422:54 *1292:A0 4.82863e-05
32 *422:66 *1292:A0 1.61831e-05
33 *422:66 *1385:A1 0.000158066
34 *1227:A2 *422:30 9.5433e-05
35 *1227:B1 *422:50 5.4003e-05
36 *1229:A2 *422:30 5.54216e-05
37 *1252:B1 *422:66 0.000288102
38 *1253:A *422:14 7.87426e-05
39 *1254:A1 *422:92 4.11455e-05
40 *1254:A2 *422:30 0.000106685
41 *1254:B1 *422:30 1.56428e-05
42 *1256:B1 *422:30 1.14169e-05
43 *1256:B1 *422:92 0.000234349
44 *1256:B1 *422:105 0.000560614
45 *1257:B1 *1331:A1 0.000129297
46 *1257:B1 *422:54 2.17931e-05
47 *1257:B1 *422:66 0.000277223
48 *1284:A *422:14 0
49 *1292:S *1331:A1 3.96653e-05
50 *1292:S *422:54 2.75229e-05
51 *1349:S *1349:A1 2.93678e-05
52 *1373:S *1440:A1 3.3625e-05
53 *1404:S *422:14 2.97004e-06
54 *1422:S *1422:A1 5.4155e-06
55 *1428:S *422:50 0
56 *1500:D *422:14 0
57 *1532:D *422:14 9.23578e-05
58 *1543:A *422:50 0.000534636
59 *1580:A *422:66 0.000213622
60 *1605:A *422:14 0.000120186
61 *1634:A *422:14 2.46089e-05
62 *165:171 *422:30 2.96334e-05
63 *165:171 *422:50 5.4166e-05
64 *258:85 *422:50 0
65 *278:65 *1440:A1 0.00012416
66 *288:100 *422:66 7.41851e-05
67 *309:95 *1422:A1 5.12969e-06
68 *309:95 *422:92 2.76356e-05
69 *309:95 *422:105 0.000413961
70 *328:83 *422:50 0.000135166
71 *334:86 *422:14 0
72 *370:10 *422:30 1.37328e-05
73 *381:12 *422:30 8.65961e-05
*RES
1 *1624:X *422:14 28.715 
2 *422:14 *422:30 13.405 
3 *422:30 *422:50 25.325 
4 *422:50 *422:54 1.755 
5 *422:54 *422:66 10.02 
6 *422:66 *1349:A1 4.465 
7 *422:66 *1385:A0 1.6 
8 *422:54 *1292:A1 1.6 
9 *422:50 *1331:A1 5.5 
10 *422:30 *422:92 2.175 
11 *422:92 *1422:A1 1.96 
12 *422:92 *422:105 9.41 
13 *422:105 *1367:A1 3.6 
14 *422:105 *1440:A1 7.785 
15 *422:14 *1404:A1 1.6 
*END

*D_NET *423 0.000558366
*CONN
*I *1614:A I *D sky130_fd_sc_hd__dlygate4sd3_1
*I *1641:A I *D sky130_fd_sc_hd__clkbuf_4
*I *1470:Q O *D sky130_fd_sc_hd__dfrtp_1
*CAP
1 *1614:A 0
2 *1641:A 0.0001357
3 *1470:Q 6.79482e-05
4 *423:8 0.000203648
5 *1641:A *477:12 3.04982e-05
6 *423:8 *477:12 3.58626e-05
7 dout[6] *1641:A 7.91745e-05
8 dout[6] *423:8 5.53549e-06
*RES
1 *1470:Q *423:8 4.98 
2 *423:8 *1641:A 6.45 
3 *423:8 *1614:A 3.6 
*END

*D_NET *424 0.0013745
*CONN
*I *1610:A I *D sky130_fd_sc_hd__dlygate4sd3_1
*I *1642:A I *D sky130_fd_sc_hd__clkbuf_4
*I *1471:Q O *D sky130_fd_sc_hd__dfrtp_1
*CAP
1 *1610:A 0.000211054
2 *1642:A 0.00040437
3 *1471:Q 0
4 *424:4 0.000615424
5 *1642:A *1395:A0 0
6 *1471:RESET_B *1610:A 0
7 *1471:RESET_B *1642:A 9.30977e-05
8 *413:20 *1610:A 5.05521e-05
*RES
1 *1471:Q *424:4 1.6 
2 *424:4 *1642:A 11.45 
3 *424:4 *1610:A 9.05 
*END

*D_NET *425 0.0231509
*CONN
*I *1278:A I *D sky130_fd_sc_hd__or2_1
*I *1643:A I *D sky130_fd_sc_hd__clkbuf_4
*I *1270:A2 I *D sky130_fd_sc_hd__a21o_1
*I *1269:Y O *D sky130_fd_sc_hd__nor2_2
*CAP
1 *1278:A 0
2 *1643:A 0
3 *1270:A2 0.000275278
4 *1269:Y 0
5 *425:71 0.00213133
6 *425:55 0.00327805
7 *425:28 0.00316301
8 *425:4 0.00403446
9 *1270:A2 *1270:A1 5.31158e-06
10 *1270:A2 *1270:B1 0.000259021
11 *1270:A2 *431:16 0.000268701
12 *425:28 *1258:A0 6.63089e-05
13 *425:28 *1357:A1 0.000258842
14 *425:28 *1430:A0 4.82919e-05
15 *425:28 *437:89 4.9253e-06
16 *425:28 *437:122 0.000127059
17 *425:55 *437:89 5.39961e-05
18 *425:55 *437:122 0.000873082
19 *425:71 *1440:A0 2.77283e-05
20 *425:71 *1654:A 0
21 *425:71 *433:14 0.000998414
22 *425:71 *437:122 6.57653e-06
23 dout[3] *425:71 7.27003e-05
24 unused[3] *425:71 0.000161984
25 used[0] *425:71 0.00058622
26 *1208:A *1270:A2 4.89395e-05
27 *1220:A1 *425:28 0.000226961
28 *1227:A2 *425:55 0.00016141
29 *1228:B2 *425:55 6.01223e-05
30 *1230:B2 *425:55 0
31 *1238:A2 *425:28 8.06393e-06
32 *1238:B1 *425:28 2.49909e-05
33 *1239:B2 *425:28 0.000169576
34 *1255:B2 *425:71 0.000507936
35 *1277:A *425:55 0.000472855
36 *1278:B *425:55 4.82919e-05
37 *1278:B *425:71 2.87867e-05
38 *1338:A *425:55 0.000261168
39 *1357:S *425:28 0.000123589
40 *1358:A *425:28 3.93576e-05
41 *1374:A *425:71 0.000108937
42 *1413:A *425:28 0.000123592
43 *1415:A *1270:A2 4.28112e-06
44 *1446:S *425:55 0.000138106
45 *1483:D *425:28 4.82319e-06
46 *1543:A *425:55 8.38208e-05
47 *1561:A *425:55 6.06078e-05
48 *1562:A *425:28 0.000333876
49 *1621:A *425:71 0.0001249
50 *1625:A *425:71 0.0001249
51 *172:53 *425:28 0.000582748
52 *172:66 *425:28 1.12578e-05
53 *245:33 *425:55 0.00037798
54 *245:46 *425:55 0.000233441
55 *254:82 *425:55 0.000141606
56 *254:123 *1270:A2 0.000274668
57 *254:129 *1270:A2 0
58 *328:10 *425:28 5.05521e-05
59 *328:83 *425:55 9.94631e-05
60 *340:14 *425:28 5.0933e-05
61 *386:12 *425:71 0.000201508
62 *401:6 *425:71 0.000209919
63 *401:8 *425:71 0.000175282
64 *422:30 *425:55 9.37731e-05
65 *422:50 *425:55 0.000656583
*RES
1 *1269:Y *425:4 1.6 
2 *425:4 *425:28 46.775 
3 *425:28 *1270:A2 11.805 
4 *425:4 *425:55 36.805 
5 *425:55 *425:71 49.18 
6 *425:71 *1643:A 1.6 
7 *425:55 *1278:A 1.6 
*END

*D_NET *426 0.00671024
*CONN
*I *1644:A I *D sky130_fd_sc_hd__buf_2
*I *1272:A2 I *D sky130_fd_sc_hd__a21o_1
*I *1271:Y O *D sky130_fd_sc_hd__inv_2
*CAP
1 *1644:A 0.00180068
2 *1272:A2 3.00764e-05
3 *1271:Y 0.000361594
4 *426:10 0.00219235
5 *1272:A2 *1272:B1 4.99619e-05
6 *1272:A2 *1557:A 0.000203178
7 *1272:A2 *1647:A 8.95933e-05
8 *1644:A *1395:A0 6.29692e-05
9 *1644:A *1397:A1 6.66768e-05
10 *1644:A *1557:A 0.000103557
11 *1644:A *1647:A 0.000205879
12 *1644:A *488:16 6.71438e-05
13 *426:10 *1647:A 0
14 *426:10 *427:10 0
15 *426:10 *514:10 6.55406e-05
16 unused[0] *1644:A 0.000291045
17 *1395:S *1644:A 0.000792119
18 *1397:S *1644:A 8.52883e-05
19 *1398:A *1644:A 0.000110691
20 *1462:D *426:10 0
21 *1630:A *1644:A 8.52883e-05
22 *37:10 *426:10 0
23 *288:38 *1644:A 4.66108e-05
*RES
1 *1271:Y *426:10 11.315 
2 *426:10 *1272:A2 3.43 
3 *426:10 *1644:A 35.5 
*END

*D_NET *427 0.00535509
*CONN
*I *1557:A I *D sky130_fd_sc_hd__dlygate4sd3_1
*I *1645:A I *D sky130_fd_sc_hd__clkbuf_4
*I *1462:Q O *D sky130_fd_sc_hd__dfrtp_1
*CAP
1 *1557:A 0.000118525
2 *1645:A 0.00178846
3 *1462:Q 7.87472e-05
4 *427:10 0.00198573
5 *1557:A *1272:B1 6.90876e-05
6 *427:10 *1647:A 9.47454e-05
7 unused[0] *1557:A 0.000163204
8 *1272:A1 *1557:A 0.000114912
9 *1272:A1 *1645:A 0.0001249
10 *1272:A1 *427:10 6.73751e-05
11 *1272:A2 *1557:A 0.000203178
12 *1306:A *1645:A 7.2328e-05
13 *1323:A *1645:A 0.000241483
14 *1462:D *1557:A 1.03423e-05
15 *1462:D *1645:A 1.4389e-05
16 *1644:A *1557:A 0.000103557
17 *402:6 *1645:A 0.000104119
18 *426:10 *427:10 0
*RES
1 *1462:Q *427:10 7.49 
2 *427:10 *1645:A 28.27 
3 *427:10 *1557:A 5.86 
*END

*D_NET *428 0.00210674
*CONN
*I *1546:A I *D sky130_fd_sc_hd__dlygate4sd3_1
*I *1646:A I *D sky130_fd_sc_hd__buf_2
*I *1463:Q O *D sky130_fd_sc_hd__dfrtp_1
*CAP
1 *1546:A 0.000112857
2 *1646:A 0.000677459
3 *1463:Q 0
4 *428:6 0.000790317
5 *1546:A *431:16 9.13111e-05
6 *1646:A *431:16 4.83749e-05
7 underrun *1646:A 8.23448e-05
8 *1197:A *1646:A 4.70343e-05
9 *1208:A *1646:A 6.29313e-05
10 *1609:A *1646:A 0.000103434
11 *1611:A *1646:A 9.06802e-05
12 *413:20 *1646:A 0
*RES
1 *1463:Q *428:6 3.6 
2 *428:6 *1646:A 17.22 
3 *428:6 *1546:A 6.255 
*END

*D_NET *429 0.00670448
*CONN
*I *1536:A I *D sky130_fd_sc_hd__buf_1
*I *1285:A1 I *D sky130_fd_sc_hd__a21oi_2
*I *1647:A I *D sky130_fd_sc_hd__clkbuf_4
*I *1274:X O *D sky130_fd_sc_hd__dlymetal6s2s_1
*CAP
1 *1536:A 5.60557e-05
2 *1285:A1 7.38465e-05
3 *1647:A 0.000925242
4 *1274:X 2.42846e-05
5 *429:25 0.00039346
6 *429:8 0.00121309
7 *1285:A1 *1285:A2 5.06989e-05
8 *1647:A *1272:B1 0.000164874
9 *1647:A *1326:A 0
10 *1647:A *1345:A_N 0.000178124
11 *1647:A *1436:A_N 0.000155554
12 *1647:A *514:59 0.000264595
13 *1647:A *514:70 0.000112123
14 *1647:A *514:83 4.9968e-05
15 *429:8 *1652:A 2.75229e-05
16 *429:25 *1444:A1 0
17 *1272:A1 *1647:A 0
18 *1272:A2 *1647:A 8.95933e-05
19 *1280:C *1647:A 0
20 *1280:C *429:25 0
21 *1399:C *1647:A 0.000231694
22 *1444:S *429:25 0
23 *1462:D *1647:A 0.000581986
24 *1476:RESET_B *1647:A 9.37731e-05
25 *1644:A *1647:A 0.000205879
26 *37:10 *1647:A 0.000444508
27 *140:21 *1647:A 0
28 *165:38 *1285:A1 0.000191881
29 *165:38 *1536:A 0.000177596
30 *176:24 *1285:A1 0.00042293
31 *176:24 *1536:A 0.000308645
32 *256:10 *1647:A 0
33 *297:14 *1647:A 7.67036e-05
34 *413:77 *1647:A 9.51057e-05
35 *426:10 *1647:A 0
36 *427:10 *1647:A 9.47454e-05
*RES
1 *1274:X *429:8 4.05 
2 *429:8 *1647:A 28.395 
3 *429:8 *429:25 6.185 
4 *429:25 *1285:A1 5.5 
5 *429:25 *1536:A 4.465 
*END

*D_NET *430 0.011612
*CONN
*I *1648:A I *D sky130_fd_sc_hd__clkbuf_4
*I *1286:C I *D sky130_fd_sc_hd__and3b_1
*I *1285:Y O *D sky130_fd_sc_hd__a21oi_2
*CAP
1 *1648:A 0.00197682
2 *1286:C 0.000610366
3 *1285:Y 0.00231811
4 *430:14 0.00490529
5 *1286:C *1286:A_N 1.7386e-05
6 *1648:A *1653:A 0.000141599
7 *1648:A *436:10 0.000180115
8 *430:14 *1182:D1 8.53921e-05
9 *430:14 *1270:A1 2.9539e-05
10 *430:14 *431:16 6.57853e-06
11 *430:14 *499:44 0.000433544
12 unused[1] *1648:A 0
13 *1223:A *1648:A 0.000320518
14 *1276:A *1286:C 0
15 *1276:A *1648:A 0
16 *1281:A1 *430:14 0.00010323
17 *1286:B *1286:C 0
18 *1466:CLK *1648:A 0
19 *1466:D *1648:A 6.55328e-05
20 *1468:D *1648:A 0.00011852
21 *1469:CLK *1648:A 0
22 *1469:D *1648:A 0.000118527
23 *1489:D *1648:A 5.63405e-05
24 *1491:CLK *1648:A 0.00011626
25 *1492:CLK *1648:A 0
26 *1537:A *430:14 0
27 *1637:A *1648:A 0
28 *142:40 *430:14 8.30853e-06
29 *142:55 *430:14 0
30 *163:24 *1648:A 0
31 *333:22 *1648:A 0
32 *333:24 *1648:A 0
33 *334:55 *1648:A 0
34 *418:12 *1648:A 0
*RES
1 *1285:Y *430:14 9.85263 
2 *430:14 *1286:C 13.4625 
3 *430:14 *1648:A 40.8525 
*END

*D_NET *431 0.01455
*CONN
*I *1649:A I *D sky130_fd_sc_hd__buf_2
*I *1281:X O *D sky130_fd_sc_hd__o21a_1
*CAP
1 *1649:A 0
2 *1281:X 0.00591008
3 *431:16 0.00591008
4 *431:16 *1270:A1 0
5 dout[1] *431:16 4.4123e-05
6 *1208:A *431:16 1.7635e-05
7 *1266:A1 *431:16 9.54399e-05
8 *1268:A *431:16 0
9 *1270:A2 *431:16 0.000268701
10 *1281:A1 *431:16 9.5799e-06
11 *1415:A *431:16 3.89775e-05
12 *1464:RESET_B *431:16 5.39718e-05
13 *1465:RESET_B *431:16 9.428e-05
14 *1546:A *431:16 9.13111e-05
15 *1592:A *431:16 0.000231564
16 *1606:A *431:16 6.9451e-05
17 *1616:A *431:16 0.000196464
18 *1628:A *431:16 0
19 *1635:A *431:16 0.000312899
20 *1646:A *431:16 4.83749e-05
21 *175:50 *431:16 0.000717003
22 *254:113 *431:16 0.000262454
23 *254:123 *431:16 0
24 *342:12 *431:16 0.000135382
25 *417:8 *431:16 3.56638e-05
26 *430:14 *431:16 6.57853e-06
*RES
1 *1281:X *431:16 48.8369 
2 *431:16 *1649:A 3.6 
*END

*D_NET *432 0.000152619
*CONN
*I *1650:A I *D sky130_fd_sc_hd__clkbuf_4
*I *1279:X O *D sky130_fd_sc_hd__clkbuf_1
*CAP
1 *1650:A 5.78754e-05
2 *1279:X 5.78754e-05
3 *1374:A *1650:A 3.68682e-05
*RES
1 *1279:X *1650:A 8.325 
*END

*D_NET *433 0.0131359
*CONN
*I *1442:A1 I *D sky130_fd_sc_hd__mux2_1
*I *1369:A1 I *D sky130_fd_sc_hd__mux2_1
*I *1424:A1 I *D sky130_fd_sc_hd__mux2_1
*I *1406:A1 I *D sky130_fd_sc_hd__mux2_1
*I *1387:A0 I *D sky130_fd_sc_hd__mux2_1
*I *1351:A1 I *D sky130_fd_sc_hd__mux2_1
*I *1333:A1 I *D sky130_fd_sc_hd__mux2_1
*I *1294:A1 I *D sky130_fd_sc_hd__mux2_1
*I *1625:X O *D sky130_fd_sc_hd__clkbuf_2
*CAP
1 *1442:A1 0.000487214
2 *1369:A1 0
3 *1424:A1 4.02437e-05
4 *1406:A1 0.000639996
5 *1387:A0 0.000147238
6 *1351:A1 0.000109413
7 *1333:A1 0
8 *1294:A1 0.000165242
9 *1625:X 0.000583164
10 *433:50 0.000872553
11 *433:40 0.0012559
12 *433:22 0.000245542
13 *433:20 0.00030124
14 *433:18 0.000434807
15 *433:16 0.0002051
16 *433:14 0.00110185
17 *1406:A1 *1383:A1 4.43871e-06
18 *1442:A1 *1442:A0 2.88357e-05
19 *433:14 *1651:A 0
20 *433:18 *1651:A 0
21 *433:20 *1333:A0 9.52234e-05
22 *433:22 *1333:A0 3.67779e-05
23 *1240:A1 *1387:A0 0.000187874
24 *1246:A2 *433:14 0.000234427
25 *1246:A2 *433:16 8.14286e-05
26 *1246:A2 *433:18 0.000201113
27 *1247:A1 *433:18 0.000123751
28 *1247:A1 *433:20 9.0286e-05
29 *1247:C1 *433:14 0.000178234
30 *1247:C1 *433:16 9.05535e-05
31 *1247:C1 *433:18 0.000553737
32 *1247:C1 *433:20 0.000173686
33 *1255:B2 *433:14 0
34 *1295:A *1294:A1 0.000112954
35 *1365:A1 *433:14 0.000276441
36 *1482:D *1406:A1 0.00021994
37 *1482:D *433:50 0.000416817
38 *1490:CLK *1387:A0 0.000111624
39 *1498:CLK *1442:A1 0.000125793
40 *1498:D *1442:A1 1.43717e-05
41 *1596:A *433:20 1.38171e-05
42 *1596:A *433:22 7.21296e-06
43 *1625:A *433:14 4.99619e-05
44 *1638:A *1424:A1 8.49205e-05
45 *1638:A *433:14 0.000229559
46 *163:86 *1406:A1 2.21878e-05
47 *172:98 *1294:A1 6.87001e-05
48 *172:98 *433:20 7.74326e-05
49 *172:98 *433:22 4.71081e-05
50 *176:77 *1406:A1 0
51 *254:109 *433:20 8.41703e-06
52 *258:85 *1351:A1 0.000160635
53 *258:85 *433:50 0.000302113
54 *258:110 *1294:A1 0
55 *258:110 *433:22 0
56 *278:61 *433:50 7.23602e-05
57 *299:22 *1387:A0 9.11724e-05
58 *319:84 *1406:A1 0.000223576
59 *319:104 *1442:A1 5.58912e-05
60 *336:40 *1406:A1 7.25945e-05
61 *336:99 *1442:A1 0.000121891
62 *339:14 *1406:A1 3.34652e-05
63 *355:10 *433:14 1.52945e-05
64 *401:8 *433:14 0.000431333
65 *425:71 *433:14 0.000998414
*RES
1 *1625:X *433:14 22.32 
2 *433:14 *433:16 1.125 
3 *433:16 *433:18 6.48 
4 *433:18 *433:20 4.95 
5 *433:20 *433:22 1.635 
6 *433:22 *1294:A1 7.02 
7 *433:22 *1333:A1 3.6 
8 *433:20 *433:40 2 
9 *433:40 *433:50 12.325 
10 *433:50 *1351:A1 3.085 
11 *433:50 *1387:A0 9.785 
12 *433:40 *1406:A1 14.57 
13 *433:18 *1424:A1 4.395 
14 *433:16 *1369:A1 3.6 
15 *433:14 *1442:A1 9.915 
*END

*D_NET *434 0.00894746
*CONN
*I *1651:A I *D sky130_fd_sc_hd__clkbuf_4
*I *1536:X O *D sky130_fd_sc_hd__buf_1
*CAP
1 *1651:A 0.00154333
2 *1536:X 0.000296732
3 *434:10 0.00184006
4 *1190:A *1651:A 0
5 *1190:A *434:10 0.000192735
6 *1237:A1 *1651:A 0.00023592
7 *1238:B1 *1651:A 0.000382031
8 *1238:C1 *1651:A 0.000831563
9 *1243:A1 *1651:A 0.000234045
10 *1243:A2 *1651:A 1.79483e-05
11 *1246:A2 *1651:A 7.43101e-05
12 *1247:A1 *1651:A 0.000206108
13 *1248:B2 *1651:A 0.000240476
14 *1255:B2 *1651:A 0.000111603
15 *1370:A *1651:A 0.000135106
16 *1456:D *1651:A 0.000298473
17 *1530:CLK *1651:A 9.91414e-05
18 *1545:A *1651:A 0.000342011
19 *1612:A *1651:A 0.000106318
20 *165:38 *434:10 0.000187197
21 *165:63 *1651:A 0
22 *172:26 *1651:A 6.79994e-05
23 *172:98 *1651:A 0.000759758
24 *172:108 *1651:A 0.000282842
25 *176:34 *1651:A 2.94543e-05
26 *176:95 *1651:A 0.000328399
27 *278:61 *1651:A 0
28 *328:10 *1651:A 5.65627e-05
29 *328:75 *1651:A 4.73252e-05
30 *433:14 *1651:A 0
31 *433:18 *1651:A 0
*RES
1 *1536:X *434:10 8.895 
2 *434:10 *1651:A 46.29 
*END

*D_NET *435 0.0115742
*CONN
*I *1652:A I *D sky130_fd_sc_hd__clkbuf_4
*I *1283:C I *D sky130_fd_sc_hd__and3b_1
*I *1285:A2 I *D sky130_fd_sc_hd__a21oi_2
*I *1282:X O *D sky130_fd_sc_hd__xor2_2
*CAP
1 *1652:A 0.00214835
2 *1283:C 0.00127875
3 *1285:A2 4.24731e-05
4 *1282:X 0
5 *435:14 0.00158034
6 *435:4 0.00240747
7 *1283:C *1184:A2 5.42224e-05
8 *1283:C *437:44 3.25525e-05
9 *1283:C *437:48 6.2053e-05
10 *1283:C *437:81 0.000126305
11 *1652:A *1397:A0 0
12 *1652:A *1397:A1 9.7268e-05
13 *1172:A *435:14 0.000111337
14 *1193:A1 *1652:A 0.000632721
15 *1194:B1 *1652:A 0
16 *1273:A *1652:A 1.05984e-05
17 *1273:A *435:14 0.000122801
18 *1273:B *1652:A 0.000117411
19 *1274:A *1652:A 4.99619e-05
20 *1281:A1 *1283:C 0.000341622
21 *1285:A1 *1285:A2 5.06989e-05
22 *1380:A *1652:A 8.65961e-05
23 *1444:S *1652:A 0.000122323
24 *1483:D *1283:C 9.60582e-07
25 *1510:D *1652:A 9.42843e-05
26 *1531:CLK *1283:C 0
27 *1632:A *1283:C 4.66108e-05
28 *142:40 *435:14 5.03561e-05
29 *165:38 *1285:A2 0.00013194
30 *176:24 *1285:A2 2.38571e-05
31 *241:10 *1283:C 3.98434e-05
32 *241:10 *435:14 9.00945e-05
33 *256:10 *1652:A 0.000235573
34 *268:75 *1652:A 2.09211e-05
35 *268:86 *1652:A 0.000242051
36 *278:20 *1652:A 0.000632591
37 *278:31 *1652:A 0.000269814
38 *330:50 *1283:C 5.69216e-05
39 *368:10 *1652:A 0.000135002
40 *429:8 *1652:A 2.75229e-05
*RES
1 *1282:X *435:4 1.6 
2 *435:4 *435:14 7.37 
3 *435:14 *1285:A2 5.1 
4 *435:14 *1283:C 21.06 
5 *435:4 *1652:A 45.335 
*END

*D_NET *436 0.003744
*CONN
*I *1653:A I *D sky130_fd_sc_hd__clkbuf_4
*I *1283:B I *D sky130_fd_sc_hd__and3b_1
*I *1276:Y O *D sky130_fd_sc_hd__inv_2
*CAP
1 *1653:A 6.66183e-05
2 *1283:B 0.00108883
3 *1276:Y 0.000228785
4 *436:10 0.00138424
5 *1283:B *1182:A2 4.31979e-05
6 *1283:B *437:48 8.65091e-05
7 used[2] *1653:A 0
8 *1284:A *1283:B 4.77807e-05
9 *1491:D *1283:B 1.46262e-05
10 *1648:A *1653:A 0.000141599
11 *1648:A *436:10 0.000180115
12 *163:14 *1283:B 0.000190603
13 *163:154 *1283:B 0.000271095
*RES
1 *1276:Y *436:10 7.23 
2 *436:10 *1283:B 16.815 
3 *436:10 *1653:A 5.235 
*END

*D_NET *437 0.0232513
*CONN
*I *1184:A2 I *D sky130_fd_sc_hd__o211a_1
*I *1654:A I *D sky130_fd_sc_hd__clkbuf_4
*I *1277:B I *D sky130_fd_sc_hd__and2_1
*I *1269:B I *D sky130_fd_sc_hd__nor2_2
*I *1283:A_N I *D sky130_fd_sc_hd__and3b_1
*I *1186:A2 I *D sky130_fd_sc_hd__o21a_4
*I *1182:A2 I *D sky130_fd_sc_hd__o2111a_1
*I *1286:A_N I *D sky130_fd_sc_hd__and3b_1
*I *1179:A2 I *D sky130_fd_sc_hd__o211a_1
*I *1176:Y O *D sky130_fd_sc_hd__xnor2_4
*CAP
1 *1184:A2 0.000415315
2 *1654:A 0.000990528
3 *1277:B 0
4 *1269:B 0
5 *1283:A_N 0
6 *1186:A2 2.09152e-05
7 *1182:A2 0.000342648
8 *1286:A_N 0.000872702
9 *1179:A2 2.08101e-05
10 *1176:Y 0
11 *437:122 0.00251708
12 *437:89 0.00172779
13 *437:81 0.000893146
14 *437:48 0.000485286
15 *437:44 0.000153154
16 *437:42 0.000866888
17 *437:8 0.00121731
18 *437:4 0.000882657
19 *1182:A2 *1182:D1 3.01092e-05
20 *1182:A2 *1186:B1 8.35157e-05
21 *1182:A2 *444:31 0.000220042
22 *1286:A_N *1180:A 8.57024e-05
23 *1286:A_N *1599:A 3.07153e-05
24 *437:8 *1174:B_N 0.000312958
25 *437:8 *1179:C1 4.66108e-05
26 *437:42 *1152:B 0
27 *437:42 *512:23 0
28 *437:44 *438:10 0.000121659
29 *437:48 *438:10 6.52989e-05
30 *437:81 *438:10 4.77807e-05
31 *437:122 *1373:A1 0.000189426
32 *437:122 *455:78 0.000676074
33 almost_full *1654:A 0.000122155
34 dout[4] *1654:A 5.30673e-05
35 *1179:B1 *437:8 4.82863e-05
36 *1182:A1 *1182:A2 1.53177e-05
37 *1182:B1 *1182:A2 8.64488e-05
38 *1183:A1 *437:42 5.37001e-05
39 *1184:B1 *1184:A2 3.11545e-05
40 *1185:A2 *437:42 0.000129721
41 *1186:A1 *1182:A2 0.000115749
42 *1186:A1 *1186:A2 8.52137e-06
43 *1186:A1 *437:48 5.84997e-05
44 *1228:B2 *437:122 0.000177017
45 *1257:B1 *437:122 0.000343701
46 *1277:A *437:122 6.14235e-05
47 *1278:B *437:122 7.4027e-05
48 *1283:B *1182:A2 4.31979e-05
49 *1283:B *437:48 8.65091e-05
50 *1283:C *1184:A2 5.42224e-05
51 *1283:C *437:44 3.25525e-05
52 *1283:C *437:48 6.2053e-05
53 *1283:C *437:81 0.000126305
54 *1284:A *437:48 4.89395e-05
55 *1286:B *1286:A_N 5.90661e-05
56 *1286:C *1286:A_N 1.7386e-05
57 *1287:A *1286:A_N 7.4027e-05
58 *1317:A *1179:A2 0
59 *1317:A *1286:A_N 2.96426e-05
60 *1317:A *437:8 5.93953e-05
61 *1320:A *1286:A_N 0.000160314
62 *1338:A *437:122 0.000287542
63 *1374:A *1654:A 6.92319e-05
64 *1374:A *437:122 4.82863e-05
65 *1446:S *437:122 3.86987e-05
66 *1473:CLK *1182:A2 4.80058e-05
67 *1473:CLK *437:42 8.6087e-05
68 *1473:D *1182:A2 0
69 *1483:CLK *437:122 0.000173613
70 *1561:A *437:122 0.000117698
71 *1624:A *1654:A 8.8266e-05
72 *1632:A *437:42 0.000286851
73 *1632:A *437:81 1.56428e-05
74 *1637:A *1286:A_N 0
75 *142:55 *1184:A2 0.000295259
76 *142:73 *1182:A2 0.000321871
77 *142:116 *437:89 0.000505999
78 *158:83 *437:42 3.68942e-05
79 *163:154 *1182:A2 0.000212705
80 *165:38 *1184:A2 0.00033207
81 *165:171 *1184:A2 9.73303e-05
82 *165:171 *437:89 5.89056e-05
83 *165:171 *437:122 0.00108098
84 *167:10 *437:42 7.32544e-05
85 *168:38 *437:42 0.000998159
86 *245:33 *437:89 0.000162338
87 *245:33 *437:122 5.16348e-05
88 *245:46 *437:122 0.000241972
89 *254:82 *437:122 7.26551e-05
90 *258:56 *437:122 0
91 *329:14 *437:42 0.000100536
92 *329:105 *437:42 0.000171416
93 *422:14 *1654:A 0.0005632
94 *425:28 *437:89 4.9253e-06
95 *425:28 *437:122 0.000127059
96 *425:55 *437:89 5.39961e-05
97 *425:55 *437:122 0.000873082
98 *425:71 *1654:A 0
99 *425:71 *437:122 6.57653e-06
*RES
1 *1176:Y *437:4 1.6 
2 *437:4 *437:8 6.24 
3 *437:8 *1179:A2 1.96 
4 *437:8 *1286:A_N 18.455 
5 *437:4 *437:42 20.17 
6 *437:42 *437:44 1.14 
7 *437:44 *437:48 3.57 
8 *437:48 *1182:A2 15.005 
9 *437:48 *1186:A2 1.96 
10 *437:44 *1283:A_N 1.6 
11 *437:42 *437:81 4.59 
12 *437:81 *437:89 10.42 
13 *437:89 *1269:B 1.6 
14 *437:89 *437:122 47.675 
15 *437:122 *1277:B 1.6 
16 *437:122 *1654:A 21.76 
17 *437:81 *1184:A2 14.465 
*END

*D_NET *438 0.0136388
*CONN
*I *1260:B1 I *D sky130_fd_sc_hd__a22o_1
*I *1215:B1 I *D sky130_fd_sc_hd__a22o_1
*I *1242:B1 I *D sky130_fd_sc_hd__a22o_1
*I *1224:B1 I *D sky130_fd_sc_hd__a22o_1
*I *1251:B1 I *D sky130_fd_sc_hd__a22o_1
*I *1233:B1 I *D sky130_fd_sc_hd__a22o_1
*I *1632:X O *D sky130_fd_sc_hd__clkbuf_2
*CAP
1 *1260:B1 0
2 *1215:B1 0.000361882
3 *1242:B1 0
4 *1224:B1 0
5 *1251:B1 0.000139339
6 *1233:B1 1.39988e-05
7 *1632:X 0.000243725
8 *438:96 0.00106101
9 *438:75 0.00207885
10 *438:42 0.00169623
11 *438:23 0.000889601
12 *438:10 0.000691481
13 *438:10 *444:46 3.05295e-05
14 *438:23 *444:46 7.44375e-05
15 *438:42 *455:48 4.82919e-05
16 *438:75 *1337:A0 0.00011378
17 *438:75 *455:48 0.000406835
18 *438:96 *1294:A0 0.000200839
19 *1215:A2 *1215:B1 8.8266e-05
20 *1222:A1 *438:96 0.000100577
21 *1224:A1 *438:42 4.82919e-05
22 *1224:A1 *438:75 3.83041e-05
23 *1224:A2 *438:42 1.08194e-05
24 *1225:A1 *438:42 3.89366e-05
25 *1242:A1 *438:96 2.49909e-05
26 *1242:A2 *438:96 0.000105357
27 *1243:B1 *438:96 4.77769e-05
28 *1248:A2 *438:96 0.000110115
29 *1251:A2 *1251:B1 0.000159179
30 *1251:A2 *438:42 7.32625e-05
31 *1252:B1 *438:23 3.89366e-05
32 *1257:B2 *438:75 0
33 *1258:A1 *1215:B1 0.00013383
34 *1260:B2 *438:96 3.8251e-05
35 *1284:A *438:23 0
36 *1284:A *438:42 0
37 *1295:A *438:96 0.000154986
38 *1383:S *1215:B1 0
39 *1384:A *438:96 4.89295e-05
40 *1455:D *438:23 5.20968e-05
41 *1458:CLK *438:42 6.37775e-05
42 *1484:CLK *438:75 0.000249013
43 *1484:D *438:75 5.36069e-06
44 *1504:D *438:96 7.28466e-05
45 *1551:A *438:96 0.000132225
46 *1564:A *438:75 7.54649e-05
47 *158:102 *438:42 0.00017446
48 *158:135 *438:75 0.000489119
49 *167:10 *438:10 3.98952e-05
50 *167:25 *438:23 0.000308368
51 *167:38 *438:42 0.000149658
52 *167:65 *438:75 0.000111853
53 *167:65 *438:96 1.43392e-05
54 *167:84 *1215:B1 4.55864e-06
55 *176:77 *1215:B1 0.000114205
56 *219:20 *438:75 6.82201e-05
57 *245:85 *438:96 0.000102911
58 *245:102 *438:96 0.000505421
59 *258:85 *438:75 0.000498955
60 *278:61 *438:96 4.00189e-05
61 *288:68 *438:10 0.000159964
62 *288:68 *438:23 0.000150453
63 *299:22 *438:75 0
64 *330:16 *1233:B1 1.4399e-05
65 *333:10 *438:42 0.000188785
66 *335:85 *1215:B1 0.000136701
67 *341:6 *438:75 1.28131e-05
68 *364:8 *1233:B1 4.82919e-05
69 *365:16 *438:42 0
70 *422:50 *438:75 0.000108256
71 *437:44 *438:10 0.000121659
72 *437:48 *438:10 6.52989e-05
73 *437:81 *438:10 4.77807e-05
*RES
1 *1632:X *438:10 8.01 
2 *438:10 *1233:B1 4.05 
3 *438:10 *438:23 12.05 
4 *438:23 *1251:B1 4.135 
5 *438:23 *438:42 12.07 
6 *438:42 *1224:B1 1.6 
7 *438:42 *438:75 29.425 
8 *438:75 *1242:B1 1.6 
9 *438:75 *438:96 19.78 
10 *438:96 *1215:B1 12.74 
11 *438:96 *1260:B1 1.6 
*END

*D_NET *439 0.000802884
*CONN
*I *1270:B1 I *D sky130_fd_sc_hd__a21o_1
*I *1546:X O *D sky130_fd_sc_hd__dlygate4sd3_1
*CAP
1 *1270:B1 0.0001794
2 *1546:X 0.0001794
3 *1208:A *1270:B1 6.14709e-05
4 *1270:A2 *1270:B1 0.000259021
5 *1463:RESET_B *1270:B1 9.22934e-05
6 *254:129 *1270:B1 3.12983e-05
*RES
1 *1546:X *1270:B1 11.97 
*END

*D_NET *440 0.00036938
*CONN
*I *1272:B1 I *D sky130_fd_sc_hd__a21o_1
*I *1557:X O *D sky130_fd_sc_hd__dlygate4sd3_1
*CAP
1 *1272:B1 4.2728e-05
2 *1557:X 4.2728e-05
3 *1272:A2 *1272:B1 4.99619e-05
4 *1557:A *1272:B1 6.90876e-05
5 *1647:A *1272:B1 0.000164874
*RES
1 *1557:X *1272:B1 5.045 
*END

*D_NET *441 0.000381683
*CONN
*I *1377:A0 I *D sky130_fd_sc_hd__mux2_1
*I *1568:X O *D sky130_fd_sc_hd__dlygate4sd3_1
*CAP
1 *1377:A0 9.08346e-05
2 *1568:X 9.08346e-05
3 *1201:A2 *1377:A0 7.03276e-05
4 *1201:B1 *1377:A0 4.61749e-05
5 *166:76 *1377:A0 8.35118e-05
*RES
1 *1568:X *1377:A0 8.865 
*END

*D_NET *442 0.000911869
*CONN
*I *1432:A0 I *D sky130_fd_sc_hd__mux2_1
*I *1579:X O *D sky130_fd_sc_hd__dlygate4sd3_1
*CAP
1 *1432:A0 0.000270352
2 *1579:X 0.000270352
3 *1432:A0 *477:83 7.18107e-06
4 *1432:A0 *477:100 4.45017e-05
5 *1211:A1 *1432:A0 8.41279e-05
6 *1211:A2 *1432:A0 6.62684e-05
7 *1211:B1 *1432:A0 3.5678e-06
8 *1211:C1 *1432:A0 4.61125e-05
9 *1432:S *1432:A0 4.77807e-05
10 *165:139 *1432:A0 7.1624e-05
*RES
1 *1579:X *1432:A0 12.255 
*END

*D_NET *443 0.000835158
*CONN
*I *1335:A0 I *D sky130_fd_sc_hd__mux2_1
*I *1590:X O *D sky130_fd_sc_hd__dlygate4sd3_1
*CAP
1 *1335:A0 0.000120603
2 *1590:X 0.000120603
3 *1335:A0 *444:66 4.99619e-05
4 *1335:A0 *444:81 1.16578e-05
5 *1239:B1 *1335:A0 0.000277655
6 *1537:A *1335:A0 0.00016163
7 *219:20 *1335:A0 1.61831e-05
8 *258:40 *1335:A0 1.76441e-05
9 *258:56 *1335:A0 5.92191e-05
*RES
1 *1590:X *1335:A0 11.43 
*END

*D_NET *444 0.0149812
*CONN
*I *1296:A1 I *D sky130_fd_sc_hd__mux2_1
*I *1426:A1 I *D sky130_fd_sc_hd__mux2_1
*I *1408:A1 I *D sky130_fd_sc_hd__mux2_1
*I *1371:A1 I *D sky130_fd_sc_hd__mux2_1
*I *1444:A1 I *D sky130_fd_sc_hd__mux2_1
*I *1335:A1 I *D sky130_fd_sc_hd__mux2_1
*I *1389:A0 I *D sky130_fd_sc_hd__mux2_1
*I *1353:A1 I *D sky130_fd_sc_hd__mux2_1
*I *1626:X O *D sky130_fd_sc_hd__buf_2
*CAP
1 *1296:A1 2.39885e-05
2 *1426:A1 0.000245263
3 *1408:A1 0
4 *1371:A1 0.000208428
5 *1444:A1 0.000416734
6 *1335:A1 0
7 *1389:A0 0
8 *1353:A1 2.56736e-05
9 *1626:X 0.0011155
10 *444:103 0.000245263
11 *444:83 0.000739767
12 *444:81 0.00031687
13 *444:66 0.00101762
14 *444:46 0.00114305
15 *444:31 0.00102881
16 *444:12 0.00186628
17 *1353:A1 *1353:A0 4.89395e-05
18 *1371:A1 *1371:A0 4.89395e-05
19 *444:12 *1180:A 0.000141599
20 *444:31 *1353:A0 3.73456e-05
21 *444:46 *1389:A1 0.000162311
22 *444:81 *1408:A0 2.30797e-05
23 *444:83 *1408:A0 0.00011852
24 *1182:A2 *444:31 0.000220042
25 *1182:C1 *444:12 0
26 *1183:A2 *444:12 0
27 *1183:B1_N *444:12 0.000518141
28 *1185:B1_N *444:12 0
29 *1187:A *444:12 0
30 *1233:B2 *444:31 0
31 *1234:A2 *444:66 0.00039333
32 *1234:B1 *444:46 0.000155997
33 *1234:B1 *444:66 0.000356466
34 *1236:A2 *1371:A1 0.000159566
35 *1236:A2 *1426:A1 0.000119762
36 *1236:A2 *444:83 0
37 *1239:B1 *444:66 0.000109822
38 *1284:A *444:31 0
39 *1297:A *444:66 7.23602e-05
40 *1324:A *444:12 0.000247785
41 *1335:A0 *444:66 4.99619e-05
42 *1335:A0 *444:81 1.16578e-05
43 *1336:A *444:81 0
44 *1336:A *444:83 0
45 *1353:S *444:31 0.00016031
46 *1444:S *1444:A1 5.31158e-06
47 *1445:A *1444:A1 0
48 *1457:CLK *444:66 7.17811e-05
49 *1479:D *444:12 6.28765e-05
50 *1507:D *444:31 0
51 *1554:A *444:46 4.66826e-05
52 *1566:A *444:31 7.28774e-05
53 *1637:A *444:12 0.000201503
54 *142:71 *444:31 2.01259e-05
55 *158:83 *444:66 0
56 *160:45 *1444:A1 8.3657e-05
57 *163:154 *444:31 0.000238345
58 *167:10 *444:46 3.09233e-05
59 *167:25 *444:46 0.000150453
60 *219:20 *444:31 2.96426e-05
61 *219:20 *444:46 4.01778e-05
62 *219:20 *444:66 1.44045e-05
63 *219:20 *444:81 1.68507e-05
64 *244:66 *444:12 0.000219389
65 *244:83 *444:12 6.3685e-05
66 *245:20 *1296:A1 0.000122337
67 *245:20 *444:46 8.49205e-05
68 *245:20 *444:66 1.52184e-05
69 *254:8 *444:12 0.000127429
70 *254:29 *444:12 0.000652241
71 *258:40 *444:81 9.56256e-05
72 *288:68 *444:46 0.000148977
73 *288:76 *444:31 1.16578e-05
74 *288:76 *444:46 8.8266e-05
75 *299:14 *1426:A1 0.000105176
76 *299:22 *444:81 0.000139238
77 *299:22 *444:83 9.50342e-06
78 *309:10 *1444:A1 0
79 *309:10 *444:83 0
80 *330:16 *1296:A1 3.77036e-05
81 *330:16 *444:46 0.000271776
82 *330:38 *1296:A1 4.82919e-05
83 *429:25 *1444:A1 0
84 *438:10 *444:46 3.05295e-05
85 *438:23 *444:46 7.44375e-05
*RES
1 *1626:X *444:12 32.375 
2 *444:12 *1353:A1 2.41 
3 *444:12 *444:31 17.245 
4 *444:31 *1389:A0 1.6 
5 *444:31 *444:46 13.6 
6 *444:46 *444:66 17.485 
7 *444:66 *1335:A1 1.6 
8 *444:66 *444:81 5.585 
9 *444:81 *444:83 2.145 
10 *444:83 *1444:A1 9.825 
11 *444:83 *1371:A1 7.5 
12 *444:81 *444:103 2 
13 *444:103 *1408:A1 1.6 
14 *444:103 *1426:A1 5.77 
15 *444:46 *1296:A1 2.74 
*END

*D_NET *445 0.000785416
*CONN
*I *1428:A0 I *D sky130_fd_sc_hd__mux2_1
*I *1601:X O *D sky130_fd_sc_hd__dlygate4sd3_1
*CAP
1 *1428:A0 0.000154448
2 *1601:X 0.000154448
3 *1428:A0 *455:78 0.000247574
4 *1227:B1 *1428:A0 3.38982e-05
5 *165:171 *1428:A0 7.23602e-05
6 *299:46 *1428:A0 8.40269e-05
7 *381:12 *1428:A0 3.86607e-05
8 *422:50 *1428:A0 0
*RES
1 *1601:X *1428:A0 10.905 
*END

*D_NET *446 0.000337426
*CONN
*I *1371:A0 I *D sky130_fd_sc_hd__mux2_1
*I *1612:X O *D sky130_fd_sc_hd__dlygate4sd3_1
*CAP
1 *1371:A0 0.000121206
2 *1612:X 0.000121206
3 *1371:A1 *1371:A0 4.89395e-05
4 *278:53 *1371:A0 4.6075e-05
*RES
1 *1612:X *1371:A0 5.03 
*END

*D_NET *447 0.000878296
*CONN
*I *1444:A0 I *D sky130_fd_sc_hd__mux2_1
*I *1619:X O *D sky130_fd_sc_hd__dlygate4sd3_1
*CAP
1 *1444:A0 0.000246942
2 *1619:X 0.000246942
3 *172:26 *1444:A0 4.28112e-06
4 *176:24 *1444:A0 0.000309804
5 *309:10 *1444:A0 7.03276e-05
*RES
1 *1619:X *1444:A0 10.935 
*END

*D_NET *448 0.000825428
*CONN
*I *1296:A0 I *D sky130_fd_sc_hd__mux2_1
*I *1620:X O *D sky130_fd_sc_hd__dlygate4sd3_1
*CAP
1 *1296:A0 0.000223278
2 *1620:X 0.000223278
3 *1234:B1 *1296:A0 0.000306512
4 *165:171 *1296:A0 7.23602e-05
*RES
1 *1620:X *1296:A0 10.59 
*END

*D_NET *449 0.000313758
*CONN
*I *1375:A0 I *D sky130_fd_sc_hd__mux2_1
*I *1547:X O *D sky130_fd_sc_hd__dlygate4sd3_1
*CAP
1 *1375:A0 0.00011795
2 *1547:X 0.00011795
3 *1375:A0 *1375:A1 2.0187e-05
4 *1375:A0 *1448:A1 6.72833e-06
5 *1547:A *1375:A0 5.09431e-05
*RES
1 *1547:X *1375:A0 5.03 
*END

*D_NET *450 0.000359316
*CONN
*I *1450:A0 I *D sky130_fd_sc_hd__mux2_1
*I *1548:X O *D sky130_fd_sc_hd__dlygate4sd3_1
*CAP
1 *1450:A0 6.23374e-05
2 *1548:X 6.23374e-05
3 *1526:CLK *1450:A0 4.77807e-05
4 *1548:A *1450:A0 0.000105416
5 *176:45 *1450:A0 8.1444e-05
*RES
1 *1548:X *1450:A0 5.03 
*END

*D_NET *451 0.00080107
*CONN
*I *1331:A0 I *D sky130_fd_sc_hd__mux2_1
*I *1549:X O *D sky130_fd_sc_hd__dlygate4sd3_1
*CAP
1 *1331:A0 0.000245065
2 *1549:X 0.000245065
3 *1257:B1 *1331:A0 7.68414e-06
4 *1331:A1 *1331:A0 4.77719e-05
5 *258:56 *1331:A0 1.77665e-05
6 *258:60 *1331:A0 0.000237718
*RES
1 *1549:X *1331:A0 11.25 
*END

*D_NET *452 0.000825852
*CONN
*I *1369:A0 I *D sky130_fd_sc_hd__mux2_1
*I *1550:X O *D sky130_fd_sc_hd__dlygate4sd3_1
*CAP
1 *1369:A0 0.000229248
2 *1550:X 0.000229248
3 *1247:C1 *1369:A0 0.000240857
4 *1365:S *1369:A0 1.08105e-05
5 *278:75 *1369:A0 4.41506e-05
6 *355:10 *1369:A0 7.15381e-05
*RES
1 *1550:X *1369:A0 11.25 
*END

*D_NET *453 0.000426576
*CONN
*I *1294:A0 I *D sky130_fd_sc_hd__mux2_1
*I *1551:X O *D sky130_fd_sc_hd__dlygate4sd3_1
*CAP
1 *1294:A0 4.2068e-05
2 *1551:X 4.2068e-05
3 *1551:A *1294:A0 4.77757e-05
4 *245:85 *1294:A0 7.27409e-05
5 *245:102 *1294:A0 2.10841e-05
6 *438:96 *1294:A0 0.000200839
*RES
1 *1551:X *1294:A0 5.48 
*END

*D_NET *454 0.000484817
*CONN
*I *1298:A0 I *D sky130_fd_sc_hd__mux2_1
*I *1552:X O *D sky130_fd_sc_hd__dlygate4sd3_1
*CAP
1 *1298:A0 0.000111499
2 *1552:X 0.000111499
3 *1230:B2 *1298:A0 7.03219e-05
4 *158:135 *1298:A0 0.000191497
*RES
1 *1552:X *1298:A0 9.21 
*END

*D_NET *455 0.0117777
*CONN
*I *1391:A0 I *D sky130_fd_sc_hd__mux2_1
*I *1428:A1 I *D sky130_fd_sc_hd__mux2_1
*I *1373:A1 I *D sky130_fd_sc_hd__mux2_1
*I *1446:A1 I *D sky130_fd_sc_hd__mux2_1
*I *1337:A1 I *D sky130_fd_sc_hd__mux2_1
*I *1298:A1 I *D sky130_fd_sc_hd__mux2_1
*I *1410:A1 I *D sky130_fd_sc_hd__mux2_1
*I *1355:A1 I *D sky130_fd_sc_hd__mux2_1
*I *1627:X O *D sky130_fd_sc_hd__clkbuf_2
*CAP
1 *1391:A0 0
2 *1428:A1 0
3 *1373:A1 0.000226335
4 *1446:A1 0.000166482
5 *1337:A1 0
6 *1298:A1 0.000306398
7 *1410:A1 0.000144103
8 *1355:A1 0
9 *1627:X 0.000513966
10 *455:78 0.000628676
11 *455:74 0.000353633
12 *455:50 0.000432371
13 *455:48 0.000983837
14 *455:33 0.00129238
15 *455:25 0.000815965
16 *455:10 0.000921744
17 *455:10 *1355:A0 9.12494e-06
18 *455:25 *1355:A0 0.000138929
19 *455:25 *1391:A1 9.53428e-06
20 *455:33 *1391:A1 0
21 *455:50 *1337:A0 9.33942e-05
22 *1224:A1 *455:48 9.80032e-06
23 *1224:B2 *455:33 0.000141323
24 *1224:B2 *455:48 0.000115146
25 *1228:A2 *1446:A1 1.22325e-05
26 *1228:B2 *1446:A1 2.69153e-05
27 *1229:C1 *455:78 0.000159589
28 *1230:A1 *1298:A1 0
29 *1230:A1 *455:50 0
30 *1230:B1 *1298:A1 2.21074e-05
31 *1230:B2 *1298:A1 0.000227078
32 *1231:A1 *455:10 0
33 *1231:A1 *455:33 0
34 *1284:A *1410:A1 0.000271978
35 *1284:A *455:33 0
36 *1391:S *455:33 1.22676e-05
37 *1392:A *455:25 4.89295e-05
38 *1404:S *1410:A1 0
39 *1428:A0 *455:78 0.000247574
40 *1428:S *455:74 4.66108e-05
41 *1481:D *1298:A1 2.65814e-06
42 *1484:CLK *1410:A1 0
43 *1484:D *455:48 1.43717e-05
44 *1492:D *455:25 2.10214e-05
45 *1508:D *455:25 1.56428e-05
46 *1615:A *455:10 0.000188984
47 *1615:A *455:25 7.3777e-05
48 *163:45 *455:10 0
49 *165:171 *1298:A1 0.000137435
50 *165:171 *455:50 0.000213522
51 *165:171 *455:74 0.000305636
52 *165:171 *455:78 1.80792e-05
53 *254:82 *455:74 2.67184e-05
54 *258:85 *455:50 0
55 *299:46 *455:74 0.000120655
56 *334:21 *1410:A1 0
57 *334:104 *1373:A1 0.000347916
58 *349:8 *455:33 1.03423e-05
59 *357:12 *1373:A1 5.18362e-05
60 *381:12 *455:78 1.52945e-05
61 *421:10 *455:25 4.66108e-05
62 *422:50 *455:48 0.00010163
63 *422:50 *455:50 5.23362e-05
64 *422:50 *455:74 0.000314167
65 *437:122 *1373:A1 0.000189426
66 *437:122 *455:78 0.000676074
67 *438:42 *455:48 4.82919e-05
68 *438:75 *455:48 0.000406835
*RES
1 *1627:X *455:10 11.28 
2 *455:10 *1355:A1 3.6 
3 *455:10 *455:25 9.275 
4 *455:25 *455:33 9.43 
5 *455:33 *1410:A1 9.02 
6 *455:33 *455:48 11.42 
7 *455:48 *455:50 2.655 
8 *455:50 *1298:A1 8.1 
9 *455:50 *1337:A1 3.6 
10 *455:48 *455:74 6.815 
11 *455:74 *455:78 10.01 
12 *455:78 *1446:A1 6.15 
13 *455:78 *1373:A1 9.21 
14 *455:74 *1428:A1 1.6 
15 *455:25 *1391:A0 1.6 
*END

*D_NET *456 0.000930283
*CONN
*I *1448:A0 I *D sky130_fd_sc_hd__mux2_1
*I *1553:X O *D sky130_fd_sc_hd__dlygate4sd3_1
*CAP
1 *1448:A0 0.000343278
2 *1553:X 0.000343278
3 *1501:D *1448:A0 0
4 *1533:D *1448:A0 0
5 *160:97 *1448:A0 7.06865e-05
6 *165:63 *1448:A0 0.00017304
7 *172:26 *1448:A0 0
8 *268:86 *1448:A0 0
*RES
1 *1553:X *1448:A0 12.81 
*END

*D_NET *457 0.000318332
*CONN
*I *1389:A1 I *D sky130_fd_sc_hd__mux2_1
*I *1554:X O *D sky130_fd_sc_hd__dlygate4sd3_1
*CAP
1 *1389:A1 7.80106e-05
2 *1554:X 7.80106e-05
3 *444:46 *1389:A1 0.000162311
*RES
1 *1554:X *1389:A1 4.685 
*END

*D_NET *458 0.000629415
*CONN
*I *1440:A0 I *D sky130_fd_sc_hd__mux2_1
*I *1555:X O *D sky130_fd_sc_hd__dlygate4sd3_1
*CAP
1 *1440:A0 0.000292053
2 *1555:X 0.000292053
3 *1440:A0 *1442:A0 0
4 *1373:S *1440:A0 1.75795e-05
5 *386:12 *1440:A0 0
6 *425:71 *1440:A0 2.77283e-05
*RES
1 *1555:X *1440:A0 11.67 
*END

*D_NET *459 0.00059355
*CONN
*I *1373:A0 I *D sky130_fd_sc_hd__mux2_1
*I *1556:X O *D sky130_fd_sc_hd__dlygate4sd3_1
*CAP
1 *1373:A0 0.000186649
2 *1556:X 0.000186649
3 *1228:B1 *1373:A0 0.000197227
4 *1497:CLK *1373:A0 2.30258e-05
*RES
1 *1556:X *1373:A0 9.9 
*END

*D_NET *460 0.000402837
*CONN
*I *1452:A0 I *D sky130_fd_sc_hd__mux2_1
*I *1558:X O *D sky130_fd_sc_hd__dlygate4sd3_1
*CAP
1 *1452:A0 3.98789e-05
2 *1558:X 3.98789e-05
3 *1452:A0 *1379:A1 4.77757e-05
4 *1452:A0 *488:108 0.000160445
5 *319:27 *1452:A0 7.08554e-05
6 *319:38 *1452:A0 4.40028e-05
*RES
1 *1558:X *1452:A0 5.03 
*END

*D_NET *461 0.000524074
*CONN
*I *1422:A0 I *D sky130_fd_sc_hd__mux2_1
*I *1559:X O *D sky130_fd_sc_hd__dlygate4sd3_1
*CAP
1 *1422:A0 0.000154899
2 *1559:X 0.000154899
3 *1229:A2 *1422:A0 8.23457e-05
4 *1257:B2 *1422:A0 0
5 *378:14 *1422:A0 0.00013193
*RES
1 *1559:X *1422:A0 9.63 
*END

*D_NET *462 0.000718783
*CONN
*I *1367:A0 I *D sky130_fd_sc_hd__mux2_1
*I *1560:X O *D sky130_fd_sc_hd__dlygate4sd3_1
*CAP
1 *1367:A0 0.00025864
2 *1560:X 0.00025864
3 *1256:C1 *1367:A0 0
4 *1440:A1 *1367:A0 0
5 *278:61 *1367:A0 0.000201503
*RES
1 *1560:X *1367:A0 11.7 
*END

*D_NET *463 0.000667622
*CONN
*I *1446:A0 I *D sky130_fd_sc_hd__mux2_1
*I *1561:X O *D sky130_fd_sc_hd__dlygate4sd3_1
*CAP
1 *1446:A0 0.000255712
2 *1561:X 0.000255712
3 *1500:D *1446:A0 0.000156198
4 *422:14 *1446:A0 0
*RES
1 *1561:X *1446:A0 11.25 
*END

*D_NET *464 0.00151779
*CONN
*I *1430:A0 I *D sky130_fd_sc_hd__mux2_1
*I *1562:X O *D sky130_fd_sc_hd__dlygate4sd3_1
*CAP
1 *1430:A0 0.000361989
2 *1562:X 0.000361989
3 *1430:A0 *466:43 1.48096e-05
4 *1218:A2 *1430:A0 4.82919e-05
5 *165:120 *1430:A0 0.00019637
6 *165:139 *1430:A0 4.66108e-05
7 *166:120 *1430:A0 0.000249928
8 *299:109 *1430:A0 7.26551e-05
9 *332:86 *1430:A0 0.000116853
10 *425:28 *1430:A0 4.82919e-05
*RES
1 *1562:X *1430:A0 13.77 
*END

*D_NET *465 0.000966753
*CONN
*I *1434:A0 I *D sky130_fd_sc_hd__mux2_1
*I *1563:X O *D sky130_fd_sc_hd__dlygate4sd3_1
*CAP
1 *1434:A0 0.000169854
2 *1563:X 0.000169854
3 *1434:A0 *488:26 3.90495e-05
4 *1434:A0 *488:32 4.99619e-05
5 *1203:B1 *1434:A0 0.000164874
6 *1203:B2 *1434:A0 0.000344374
7 *1212:A2 *1434:A0 0
8 *166:78 *1434:A0 0
9 *384:10 *1434:A0 2.87867e-05
*RES
1 *1563:X *1434:A0 12.36 
*END

*D_NET *466 0.0106356
*CONN
*I *1339:A1 I *D sky130_fd_sc_hd__mux2_1
*I *1412:A1 I *D sky130_fd_sc_hd__mux2_1
*I *1430:A1 I *D sky130_fd_sc_hd__mux2_1
*I *1393:A0 I *D sky130_fd_sc_hd__mux2_1
*I *1357:A1 I *D sky130_fd_sc_hd__mux2_1
*I *1375:A1 I *D sky130_fd_sc_hd__mux2_1
*I *1448:A1 I *D sky130_fd_sc_hd__mux2_1
*I *1300:A1 I *D sky130_fd_sc_hd__mux2_1
*I *1628:X O *D sky130_fd_sc_hd__clkbuf_2
*CAP
1 *1339:A1 0
2 *1412:A1 2.65483e-05
3 *1430:A1 0
4 *1393:A0 0
5 *1357:A1 0.000115573
6 *1375:A1 2.52892e-05
7 *1448:A1 0.000361351
8 *1300:A1 0.000349389
9 *1628:X 0.000680171
10 *466:73 0.000240299
11 *466:51 0.000470119
12 *466:47 0.000426536
13 *466:43 0.000563544
14 *466:35 0.000815417
15 *466:18 0.00111923
16 *466:10 0.00100635
17 *466:35 *1258:A0 0
18 *466:35 *1412:A0 1.25877e-05
19 *1216:B1 *466:35 1.6783e-05
20 *1218:A2 *466:35 9.5615e-05
21 *1218:A2 *466:43 4.55933e-05
22 *1220:B1 *466:43 6.42765e-05
23 *1258:A1 *466:18 1.72489e-05
24 *1258:A1 *466:35 0
25 *1258:S *466:35 0.000203418
26 *1259:A *466:35 0.000100902
27 *1339:S *466:10 0
28 *1357:S *1357:A1 0.000123589
29 *1375:A0 *1375:A1 2.0187e-05
30 *1375:A0 *1448:A1 6.72833e-06
31 *1376:A *1448:A1 0.000227368
32 *1412:S *466:43 0.000160314
33 *1413:A *1412:A1 4.9253e-06
34 *1413:A *466:35 0.000302592
35 *1430:A0 *466:43 1.48096e-05
36 *1448:S *1448:A1 8.42857e-05
37 *1465:CLK *1300:A1 0.000453914
38 *1465:D *1300:A1 1.19928e-05
39 *1465:D *466:18 2.61093e-05
40 *165:82 *466:47 0.000502809
41 *165:120 *466:43 0.000158066
42 *165:120 *466:47 7.66083e-05
43 *165:139 *466:43 3.57349e-05
44 *172:53 *1357:A1 0.000571395
45 *175:63 *466:51 0.000184772
46 *175:63 *466:73 0.000155928
47 *175:74 *466:73 0.000195939
48 *176:64 *466:51 0.000102349
49 *176:64 *466:73 8.60912e-05
50 *176:77 *466:73 0.00011398
51 *299:109 *466:35 0
52 *425:28 *1357:A1 0.000258842
*RES
1 *1628:X *466:10 12.27 
2 *466:10 *466:18 6.26 
3 *466:18 *1300:A1 6.19 
4 *466:18 *466:35 13.585 
5 *466:35 *466:43 6.36 
6 *466:43 *466:47 7.28 
7 *466:47 *466:51 4.145 
8 *466:51 *1448:A1 7.6 
9 *466:51 *1375:A1 2.05 
10 *466:47 *466:73 6.185 
11 *466:73 *1357:A1 6.88 
12 *466:73 *1393:A0 1.6 
13 *466:43 *1430:A1 1.6 
14 *466:35 *1412:A1 2.05 
15 *466:10 *1339:A1 3.6 
*END

*D_NET *467 0.000742883
*CONN
*I *1337:A0 I *D sky130_fd_sc_hd__mux2_1
*I *1564:X O *D sky130_fd_sc_hd__dlygate4sd3_1
*CAP
1 *1337:A0 0.000232465
2 *1564:X 0.000232465
3 *1230:A1 *1337:A0 0
4 *158:135 *1337:A0 2.22026e-05
5 *258:85 *1337:A0 0
6 *341:6 *1337:A0 4.85763e-05
7 *438:75 *1337:A0 0.00011378
8 *455:50 *1337:A0 9.33942e-05
*RES
1 *1564:X *1337:A0 11.58 
*END

*D_NET *468 0.000225555
*CONN
*I *1387:A1 I *D sky130_fd_sc_hd__mux2_1
*I *1565:X O *D sky130_fd_sc_hd__dlygate4sd3_1
*CAP
1 *1387:A1 9.33329e-05
2 *1565:X 9.33329e-05
3 *288:111 *1387:A1 2.747e-05
4 *363:14 *1387:A1 1.14192e-05
*RES
1 *1565:X *1387:A1 4.685 
*END

*D_NET *469 0.000331143
*CONN
*I *1353:A0 I *D sky130_fd_sc_hd__mux2_1
*I *1566:X O *D sky130_fd_sc_hd__dlygate4sd3_1
*CAP
1 *1353:A0 7.92076e-05
2 *1566:X 7.92076e-05
3 *1353:A1 *1353:A0 4.89395e-05
4 *1353:S *1353:A0 8.64421e-05
5 *444:31 *1353:A0 3.73456e-05
*RES
1 *1566:X *1353:A0 5.03 
*END

*D_NET *470 0.000817391
*CONN
*I *1347:A0 I *D sky130_fd_sc_hd__mux2_1
*I *1567:X O *D sky130_fd_sc_hd__dlygate4sd3_1
*CAP
1 *1347:A0 0.000255988
2 *1567:X 0.000255988
3 *1260:A1 *1347:A0 0.00013015
4 *1266:A2 *1347:A0 0
5 *1347:S *1347:A0 2.76356e-05
6 *1383:A0 *1347:A0 4.66108e-05
7 *1597:A *1347:A0 3.86607e-05
8 *401:56 *1347:A0 6.23576e-05
*RES
1 *1567:X *1347:A0 12.36 
*END

*D_NET *471 0.000905751
*CONN
*I *1290:A0 I *D sky130_fd_sc_hd__mux2_1
*I *1569:X O *D sky130_fd_sc_hd__dlygate4sd3_1
*CAP
1 *1290:A0 0.00017289
2 *1569:X 0.00017289
3 *158:158 *1290:A0 0.000148261
4 *165:90 *1290:A0 0.000243403
5 *166:120 *1290:A0 0.000119247
6 *335:106 *1290:A0 4.90592e-05
*RES
1 *1569:X *1290:A0 11.25 
*END

*D_NET *472 0.000727676
*CONN
*I *1300:A0 I *D sky130_fd_sc_hd__mux2_1
*I *1570:X O *D sky130_fd_sc_hd__dlygate4sd3_1
*CAP
1 *1300:A0 0.000212371
2 *1570:X 0.000212371
3 *1602:A *1300:A0 2.75145e-05
4 *166:120 *1300:A0 0.000136877
5 *309:54 *1300:A0 0.000138544
*RES
1 *1570:X *1300:A0 10.665 
*END

*D_NET *473 0.000382441
*CONN
*I *1391:A1 I *D sky130_fd_sc_hd__mux2_1
*I *1571:X O *D sky130_fd_sc_hd__dlygate4sd3_1
*CAP
1 *1391:A1 0.000166185
2 *1571:X 0.000166185
3 *1284:A *1391:A1 4.05358e-05
4 *455:25 *1391:A1 9.53428e-06
5 *455:33 *1391:A1 0
*RES
1 *1571:X *1391:A1 9.93 
*END

*D_NET *474 0.0004531
*CONN
*I *1357:A0 I *D sky130_fd_sc_hd__mux2_1
*I *1572:X O *D sky130_fd_sc_hd__dlygate4sd3_1
*CAP
1 *1357:A0 0.000208293
2 *1572:X 0.000208293
3 *1553:A *1357:A0 2.86975e-05
4 *160:97 *1357:A0 7.81746e-06
*RES
1 *1572:X *1357:A0 9.975 
*END

*D_NET *475 0.000469445
*CONN
*I *1361:A0 I *D sky130_fd_sc_hd__mux2_1
*I *1573:X O *D sky130_fd_sc_hd__dlygate4sd3_1
*CAP
1 *1361:A0 0.000177082
2 *1573:X 0.000177082
3 *168:38 *1361:A0 0.000115281
*RES
1 *1573:X *1361:A0 5.75 
*END

*D_NET *476 0.000218399
*CONN
*I *1349:A0 I *D sky130_fd_sc_hd__mux2_1
*I *1574:X O *D sky130_fd_sc_hd__dlygate4sd3_1
*CAP
1 *1349:A0 8.00629e-05
2 *1574:X 8.00629e-05
3 *1349:A1 *1349:A0 7.00889e-06
4 *1349:S *1349:A0 1.33293e-05
5 *1355:S *1349:A0 3.79351e-05
*RES
1 *1574:X *1349:A0 8.52 
*END

*D_NET *477 0.0131082
*CONN
*I *1377:A1 I *D sky130_fd_sc_hd__mux2_1
*I *1450:A1 I *D sky130_fd_sc_hd__mux2_1
*I *1432:A1 I *D sky130_fd_sc_hd__mux2_1
*I *1414:A1 I *D sky130_fd_sc_hd__mux2_1
*I *1341:A1 I *D sky130_fd_sc_hd__mux2_1
*I *1302:A1 I *D sky130_fd_sc_hd__mux2_1
*I *1359:A1 I *D sky130_fd_sc_hd__mux2_1
*I *1395:A0 I *D sky130_fd_sc_hd__mux2_1
*I *1629:X O *D sky130_fd_sc_hd__clkbuf_2
*CAP
1 *1377:A1 0
2 *1450:A1 0.000435846
3 *1432:A1 0
4 *1414:A1 0
5 *1341:A1 0
6 *1302:A1 0
7 *1359:A1 3.22871e-05
8 *1395:A0 0.000604945
9 *1629:X 0.00072354
10 *477:100 0.000824656
11 *477:83 0.00106398
12 *477:66 0.00121525
13 *477:26 0.00129276
14 *477:22 0.000984052
15 *477:14 0.000355672
16 *477:12 0.00129076
17 *1395:A0 *1395:A1 0.00012195
18 *477:12 *1341:A0 0.000122331
19 *477:14 *1341:A0 4.77719e-05
20 *477:22 *1341:A0 4.8661e-05
21 *477:22 *488:16 7.98007e-06
22 *477:66 *488:16 0
23 dout[6] *477:12 0.000153698
24 *1198:A1 *477:66 0
25 *1202:A2 *477:83 6.90254e-05
26 *1204:A1 *1395:A0 0.000153546
27 *1206:A1 *1395:A0 0.000173959
28 *1206:A2 *1395:A0 3.90699e-05
29 *1207:A2 *477:26 2.97263e-05
30 *1210:A1 *1450:A1 0.000126426
31 *1211:C1 *477:83 1.08758e-05
32 *1211:C1 *477:100 5.19006e-06
33 *1212:A1 *477:12 8.82557e-05
34 *1212:A1 *477:22 0.000144744
35 *1213:A1 *477:22 2.30258e-05
36 *1302:S *477:26 0.000125259
37 *1303:A *477:26 0.000456948
38 *1359:S *1359:A1 9.12671e-06
39 *1359:S *1395:A0 1.42674e-05
40 *1359:S *477:26 1.79098e-05
41 *1378:A *1450:A1 0.000146707
42 *1395:S *1395:A0 8.65905e-05
43 *1414:A0 *477:66 4.77719e-05
44 *1416:S *477:66 2.20014e-05
45 *1416:S *477:83 3.04704e-05
46 *1432:A0 *477:83 7.18107e-06
47 *1432:A0 *477:100 4.45017e-05
48 *1432:S *477:83 1.54665e-05
49 *1432:S *477:100 6.72833e-06
50 *1433:A *477:100 6.63621e-05
51 *1434:S *477:83 2.59285e-05
52 *1519:CLK *477:66 0
53 *1581:A *1395:A0 5.83121e-06
54 *1587:A *477:12 2.05056e-05
55 *1589:A *477:12 6.30072e-05
56 *1641:A *477:12 3.04982e-05
57 *1642:A *1395:A0 0
58 *1644:A *1395:A0 6.29692e-05
59 *166:76 *477:83 0.000121039
60 *254:129 *477:66 0.000941522
61 *268:86 *1450:A1 0.000193869
62 *299:135 *477:83 2.24838e-05
63 *331:46 *1395:A0 0
64 *331:133 *477:22 5.47426e-05
65 *413:20 *477:12 0.000242708
66 *423:8 *477:12 3.58626e-05
*RES
1 *1629:X *477:12 19.79 
2 *477:12 *477:14 0.45 
3 *477:14 *477:22 8.5 
4 *477:22 *477:26 9 
5 *477:26 *1395:A0 17.33 
6 *477:26 *1359:A1 2.215 
7 *477:22 *1302:A1 1.6 
8 *477:14 *1341:A1 1.6 
9 *477:12 *477:66 16.12 
10 *477:66 *1414:A1 1.6 
11 *477:66 *477:83 12.34 
12 *477:83 *1432:A1 1.6 
13 *477:83 *477:100 6.825 
14 *477:100 *1450:A1 13.535 
15 *477:100 *1377:A1 1.6 
*END

*D_NET *478 0.000386435
*CONN
*I *1438:A0 I *D sky130_fd_sc_hd__mux2_1
*I *1575:X O *D sky130_fd_sc_hd__dlygate4sd3_1
*CAP
1 *1438:A0 9.5179e-05
2 *1575:X 9.5179e-05
3 *1575:A *1438:A0 0.000196077
*RES
1 *1575:X *1438:A0 5.03 
*END

*D_NET *479 0.000700687
*CONN
*I *1420:A0 I *D sky130_fd_sc_hd__mux2_1
*I *1576:X O *D sky130_fd_sc_hd__dlygate4sd3_1
*CAP
1 *1420:A0 0.000247566
2 *1576:X 0.000247566
3 *1245:B1 *1420:A0 2.16833e-05
4 *1263:B1 *1420:A0 4.59602e-05
5 *1265:B1 *1420:A0 0
6 *1266:B2 *1420:A0 0
7 *1421:A *1420:A0 0
8 *377:10 *1420:A0 5.13155e-05
9 *401:44 *1420:A0 8.65961e-05
*RES
1 *1576:X *1420:A0 11.25 
*END

*D_NET *480 0.000384368
*CONN
*I *1351:A0 I *D sky130_fd_sc_hd__mux2_1
*I *1577:X O *D sky130_fd_sc_hd__dlygate4sd3_1
*CAP
1 *1351:A0 5.47165e-05
2 *1577:X 5.47165e-05
3 *1351:S *1351:A0 5.05437e-05
4 *219:20 *1351:A0 2.54522e-05
5 *258:85 *1351:A0 0.000198939
*RES
1 *1577:X *1351:A0 5.03 
*END

*D_NET *481 0.0012056
*CONN
*I *1379:A0 I *D sky130_fd_sc_hd__mux2_1
*I *1578:X O *D sky130_fd_sc_hd__dlygate4sd3_1
*CAP
1 *1379:A0 0.00031644
2 *1578:X 0.00031644
3 *1203:B1 *1379:A0 0.000144369
4 *1207:A2 *1379:A0 1.52352e-05
5 *1540:A *1379:A0 0.000152209
6 *1541:A *1379:A0 4.66108e-05
7 *278:20 *1379:A0 8.51879e-05
8 *278:31 *1379:A0 1.46744e-05
9 *319:27 *1379:A0 8.51879e-05
10 *328:36 *1379:A0 2.92496e-05
*RES
1 *1578:X *1379:A0 13.41 
*END

*D_NET *482 0.000330946
*CONN
*I *1385:A1 I *D sky130_fd_sc_hd__mux2_1
*I *1580:X O *D sky130_fd_sc_hd__dlygate4sd3_1
*CAP
1 *1385:A1 4.90421e-05
2 *1580:X 4.90421e-05
3 *1580:A *1385:A1 4.66108e-05
4 *288:100 *1385:A1 2.8185e-05
5 *422:66 *1385:A1 0.000158066
*RES
1 *1580:X *1385:A1 4.685 
*END

*D_NET *483 0.000855696
*CONN
*I *1359:A0 I *D sky130_fd_sc_hd__mux2_1
*I *1581:X O *D sky130_fd_sc_hd__dlygate4sd3_1
*CAP
1 *1359:A0 0.000255406
2 *1581:X 0.000255406
3 *1207:A2 *1359:A0 3.80168e-05
4 *1212:B1 *1359:A0 0
5 *1302:S *1359:A0 0.000306867
*RES
1 *1581:X *1359:A0 10.935 
*END

*D_NET *484 0.0013856
*CONN
*I *1424:A0 I *D sky130_fd_sc_hd__mux2_1
*I *1582:X O *D sky130_fd_sc_hd__dlygate4sd3_1
*CAP
1 *1424:A0 0.000422812
2 *1582:X 0.000422812
3 *1407:A *1424:A0 0
4 *1514:D *1424:A0 0.000203178
5 *1638:A *1424:A0 0.000336798
*RES
1 *1582:X *1424:A0 14.52 
*END

*D_NET *485 0.00107358
*CONN
*I *1355:A0 I *D sky130_fd_sc_hd__mux2_1
*I *1583:X O *D sky130_fd_sc_hd__dlygate4sd3_1
*CAP
1 *1355:A0 0.000391816
2 *1583:X 0.000391816
3 *1356:A *1355:A0 4.22574e-05
4 *1492:D *1355:A0 3.86607e-05
5 *1615:A *1355:A0 1.32017e-05
6 *349:8 *1355:A0 4.77757e-05
7 *455:10 *1355:A0 9.12494e-06
8 *455:25 *1355:A0 0.000138929
*RES
1 *1583:X *1355:A0 12.975 
*END

*D_NET *486 0.000694126
*CONN
*I *1343:A0 I *D sky130_fd_sc_hd__mux2_1
*I *1584:X O *D sky130_fd_sc_hd__dlygate4sd3_1
*CAP
1 *1343:A0 0.000133855
2 *1584:X 0.000133855
3 *1207:A2 *1343:A0 4.61744e-05
4 *1212:A2 *1343:A0 0
5 *1212:B2 *1343:A0 0
6 *1341:S *1343:A0 8.82557e-05
7 *1343:S *1343:A0 0
8 *1581:A *1343:A0 0.000238919
9 *258:14 *1343:A0 5.30673e-05
*RES
1 *1584:X *1343:A0 11.115 
*END

*D_NET *487 0.000761074
*CONN
*I *1426:A0 I *D sky130_fd_sc_hd__mux2_1
*I *1585:X O *D sky130_fd_sc_hd__dlygate4sd3_1
*CAP
1 *1426:A0 0.000176642
2 *1585:X 0.000176642
3 *1236:A2 *1426:A0 0.000274659
4 *1238:C1 *1426:A0 7.4027e-05
5 *160:97 *1426:A0 1.85674e-05
6 *166:10 *1426:A0 4.05358e-05
*RES
1 *1585:X *1426:A0 10.95 
*END

*D_NET *488 0.0128632
*CONN
*I *1416:A1 I *D sky130_fd_sc_hd__mux2_1
*I *1434:A1 I *D sky130_fd_sc_hd__mux2_1
*I *1452:A1 I *D sky130_fd_sc_hd__mux2_1
*I *1379:A1 I *D sky130_fd_sc_hd__mux2_1
*I *1304:A1 I *D sky130_fd_sc_hd__mux2_1
*I *1397:A0 I *D sky130_fd_sc_hd__mux2_1
*I *1361:A1 I *D sky130_fd_sc_hd__mux2_1
*I *1343:A1 I *D sky130_fd_sc_hd__mux2_1
*I *1630:X O *D sky130_fd_sc_hd__clkbuf_2
*CAP
1 *1416:A1 9.9767e-05
2 *1434:A1 0
3 *1452:A1 0
4 *1379:A1 0.000189089
5 *1304:A1 0
6 *1397:A0 0.000522636
7 *1361:A1 5.32868e-05
8 *1343:A1 5.40296e-05
9 *1630:X 0.000897359
10 *488:108 0.000609194
11 *488:82 0.000942242
12 *488:61 0.000653585
13 *488:51 0.000848544
14 *488:32 0.000508212
15 *488:26 0.000699388
16 *488:16 0.00149008
17 *1397:A0 *1304:A0 4.89295e-05
18 *1397:A0 *1397:A1 0
19 *488:82 *1304:A0 0.000159702
20 used[1] *1397:A0 4.18603e-06
21 *1194:A1 *1361:A1 1.88904e-05
22 *1194:A1 *488:61 1.252e-05
23 *1194:A1 *488:82 0.000182976
24 *1194:B1 *488:61 9.30787e-05
25 *1201:A1 *488:32 0
26 *1201:A1 *488:108 0
27 *1203:A2 *488:26 5.83517e-05
28 *1203:B1 *488:26 1.31519e-05
29 *1203:B1 *488:32 0.000112631
30 *1203:B2 *488:26 0.000229953
31 *1204:A1 *1343:A1 2.34345e-05
32 *1207:A2 *1343:A1 9.16315e-05
33 *1207:A2 *488:32 3.86087e-05
34 *1207:A2 *488:51 0.000383886
35 *1207:A2 *488:61 0.000344213
36 *1213:S *488:16 1.37112e-05
37 *1214:A *488:16 0.000231187
38 *1305:A *1397:A0 0.000124771
39 *1344:A *1343:A1 0.00011852
40 *1344:A *488:32 0.000170484
41 *1416:A0 *1416:A1 4.85763e-05
42 *1434:A0 *488:26 3.90495e-05
43 *1434:A0 *488:32 4.99619e-05
44 *1435:A *488:32 4.82919e-05
45 *1452:A0 *1379:A1 4.77757e-05
46 *1452:A0 *488:108 0.000160445
47 *1461:CLK *1397:A0 0
48 *1470:D *488:16 9.18556e-05
49 *1487:CLK *488:51 4.82863e-05
50 *1487:D *488:51 0.000206926
51 *1519:CLK *488:16 0.000116165
52 *1540:A *1379:A1 1.59888e-05
53 *1578:A *488:51 4.82863e-05
54 *1578:A *488:108 4.75576e-05
55 *1591:A *488:82 1.53172e-05
56 *1644:A *488:16 6.71438e-05
57 *1652:A *1397:A0 0
58 *167:142 *488:51 8.00073e-05
59 *167:142 *488:61 0.000282454
60 *168:38 *1361:A1 4.82919e-05
61 *245:132 *1397:A0 9.77048e-06
62 *254:129 *488:16 0
63 *258:14 *1361:A1 4.66108e-05
64 *268:86 *488:108 0.000441811
65 *288:38 *1397:A0 0.000114492
66 *319:27 *1379:A1 8.08349e-05
67 *319:38 *488:108 5.6421e-05
68 *328:36 *1379:A1 1.60658e-05
69 *331:133 *488:16 0.000520861
70 *332:10 *488:108 3.86529e-05
71 *392:8 *1379:A1 8.73389e-06
72 *400:10 *488:82 1.64067e-05
73 *477:22 *488:16 7.98007e-06
74 *477:66 *488:16 0
*RES
1 *1630:X *488:16 22.79 
2 *488:16 *488:26 8.01 
3 *488:26 *488:32 6.575 
4 *488:32 *1343:A1 5.49 
5 *488:32 *488:51 8.795 
6 *488:51 *488:61 7.3475 
7 *488:61 *1361:A1 4.7325 
8 *488:61 *488:82 9.0125 
9 *488:82 *1397:A0 14.66 
10 *488:82 *1304:A1 1.6 
11 *488:51 *488:108 12.07 
12 *488:108 *1379:A1 8.375 
13 *488:108 *1452:A1 1.6 
14 *488:26 *1434:A1 1.6 
15 *488:16 *1416:A1 2.74 
*END

*D_NET *489 0.000621323
*CONN
*I *1442:A0 I *D sky130_fd_sc_hd__mux2_1
*I *1586:X O *D sky130_fd_sc_hd__dlygate4sd3_1
*CAP
1 *1442:A0 0.000257336
2 *1586:X 0.000257336
3 *1440:A0 *1442:A0 0
4 *1442:A1 *1442:A0 2.88357e-05
5 *1443:A *1442:A0 0
6 *1586:A *1442:A0 2.87867e-05
7 *319:104 *1442:A0 4.90291e-05
*RES
1 *1586:X *1442:A0 11.67 
*END

*D_NET *490 0.000495085
*CONN
*I *1341:A0 I *D sky130_fd_sc_hd__mux2_1
*I *1587:X O *D sky130_fd_sc_hd__dlygate4sd3_1
*CAP
1 *1341:A0 3.97908e-05
2 *1587:X 3.97908e-05
3 *1212:A1 *1341:A0 0.00019674
4 *477:12 *1341:A0 0.000122331
5 *477:14 *1341:A0 4.77719e-05
6 *477:22 *1341:A0 4.8661e-05
*RES
1 *1587:X *1341:A0 5.03 
*END

*D_NET *491 0.000597263
*CONN
*I *1292:A0 I *D sky130_fd_sc_hd__mux2_1
*I *1588:X O *D sky130_fd_sc_hd__dlygate4sd3_1
*CAP
1 *1292:A0 0.000173028
2 *1588:X 0.000173028
3 *1277:A *1292:A0 4.03077e-06
4 *328:83 *1292:A0 0.000182707
5 *422:54 *1292:A0 4.82863e-05
6 *422:66 *1292:A0 1.61831e-05
*RES
1 *1588:X *1292:A0 10.14 
*END

*D_NET *492 0.00111949
*CONN
*I *1302:A0 I *D sky130_fd_sc_hd__mux2_1
*I *1589:X O *D sky130_fd_sc_hd__dlygate4sd3_1
*CAP
1 *1302:A0 0.000170679
2 *1589:X 0.000170679
3 *1213:A0 *1302:A0 0.000158547
4 *1213:A1 *1302:A0 0.000381225
5 *1213:S *1302:A0 6.41593e-05
6 *1214:A *1302:A0 7.18795e-06
7 *1302:S *1302:A0 8.46717e-05
8 *331:133 *1302:A0 8.23457e-05
*RES
1 *1589:X *1302:A0 8.135 
*END

*D_NET *493 0.000397466
*CONN
*I *1304:A0 I *D sky130_fd_sc_hd__mux2_1
*I *1591:X O *D sky130_fd_sc_hd__dlygate4sd3_1
*CAP
1 *1304:A0 4.15612e-05
2 *1591:X 4.15612e-05
3 *1302:S *1304:A0 9.47267e-06
4 *1397:A0 *1304:A0 4.89295e-05
5 *1591:A *1304:A0 2.69217e-05
6 *245:132 *1304:A0 6.93172e-05
7 *488:82 *1304:A0 0.000159702
*RES
1 *1591:X *1304:A0 5.03 
*END

*D_NET *494 0.000368674
*CONN
*I *1329:A0 I *D sky130_fd_sc_hd__mux2_1
*I *1592:X O *D sky130_fd_sc_hd__dlygate4sd3_1
*CAP
1 *1329:A0 0.0001347
2 *1592:X 0.0001347
3 *1329:A1 *1329:A0 4.85763e-05
4 *1329:S *1329:A0 5.06989e-05
*RES
1 *1592:X *1329:A0 5.375 
*END

*D_NET *495 0.000376727
*CONN
*I *1395:A1 I *D sky130_fd_sc_hd__mux2_1
*I *1593:X O *D sky130_fd_sc_hd__dlygate4sd3_1
*CAP
1 *1395:A1 0.000125903
2 *1593:X 0.000125903
3 dout[7] *1395:A1 2.97004e-06
4 *1395:A0 *1395:A1 0.00012195
*RES
1 *1593:X *1395:A1 9.54 
*END

*D_NET *496 0.000389491
*CONN
*I *1339:A0 I *D sky130_fd_sc_hd__mux2_1
*I *1594:X O *D sky130_fd_sc_hd__dlygate4sd3_1
*CAP
1 *1339:A0 9.61268e-05
2 *1594:X 9.61268e-05
3 *1221:A1 *1339:A0 0.000197238
*RES
1 *1594:X *1339:A0 5.03 
*END

*D_NET *497 0.000288959
*CONN
*I *1365:A0 I *D sky130_fd_sc_hd__mux2_1
*I *1595:X O *D sky130_fd_sc_hd__dlygate4sd3_1
*CAP
1 *1365:A0 6.83832e-05
2 *1595:X 6.83832e-05
3 *1366:A *1365:A0 3.00381e-05
4 *176:87 *1365:A0 0.000122155
*RES
1 *1595:X *1365:A0 5.03 
*END

*D_NET *498 0.000861117
*CONN
*I *1333:A0 I *D sky130_fd_sc_hd__mux2_1
*I *1596:X O *D sky130_fd_sc_hd__dlygate4sd3_1
*CAP
1 *1333:A0 0.000182316
2 *1596:X 0.000182316
3 *1248:A1 *1333:A0 0.000124007
4 *1596:A *1333:A0 0.000240476
5 *433:20 *1333:A0 9.52234e-05
6 *433:22 *1333:A0 3.67779e-05
*RES
1 *1596:X *1333:A0 11.25 
*END

*D_NET *499 0.0182259
*CONN
*I *1186:B1 I *D sky130_fd_sc_hd__o21a_4
*I *1270:A1 I *D sky130_fd_sc_hd__a21o_1
*I *1184:C1 I *D sky130_fd_sc_hd__o211a_1
*I *1182:D1 I *D sky130_fd_sc_hd__o2111a_1
*I *1179:C1 I *D sky130_fd_sc_hd__o211a_1
*I *1631:X O *D sky130_fd_sc_hd__buf_2
*CAP
1 *1186:B1 0.000315283
2 *1270:A1 0.00439831
3 *1184:C1 7.24629e-06
4 *1182:D1 0.000361791
5 *1179:C1 1.36534e-05
6 *1631:X 0.00063765
7 *499:44 0.00523193
8 *499:21 0.00118816
9 *499:19 0.000620296
10 *499:8 0.000956317
11 *499:8 *1158:A 6.75968e-05
12 *499:8 *1161:A 3.86607e-05
13 *499:8 *1162:A 0
14 *1162:B *499:8 0
15 *1178:B *1186:B1 3.43735e-05
16 *1178:B *499:19 0.000115631
17 *1182:A2 *1182:D1 3.01092e-05
18 *1182:A2 *1186:B1 8.35157e-05
19 *1182:B1 *1182:D1 4.77719e-05
20 *1182:C1 *1182:D1 5.55448e-05
21 *1184:B1 *1184:C1 1.00941e-05
22 *1186:A1 *1186:B1 4.60814e-05
23 *1191:C *1186:B1 0.000135382
24 *1270:A2 *1270:A1 5.31158e-06
25 *1317:A *1179:C1 4.66108e-05
26 *1318:A *499:19 0.000185405
27 *1415:A *1270:A1 0
28 *1472:RESET_B *499:19 9.16237e-05
29 *1473:D *1186:B1 7.03219e-05
30 *1478:D *499:8 3.18219e-05
31 *1478:RESET_B *499:8 0
32 *1518:D *1270:A1 3.89366e-05
33 *1537:A *1182:D1 4.99307e-05
34 *1537:A *1270:A1 5.76904e-05
35 *1537:A *499:44 0.000239263
36 *142:40 *1184:C1 1.92979e-05
37 *152:72 *1186:B1 0.000111614
38 *157:10 *499:8 0.000113669
39 *157:10 *499:19 0.000696103
40 *157:45 *1186:B1 0.000131164
41 *157:45 *499:19 0.000211021
42 *157:56 *1186:B1 6.84082e-05
43 *163:154 *1186:B1 7.84137e-05
44 *165:63 *1270:A1 0.000285245
45 *166:76 *1270:A1 0.000101386
46 *176:24 *1270:A1 0.000121244
47 *254:129 *1270:A1 0.000183817
48 *268:26 *499:8 4.92069e-05
49 *268:26 *499:19 0.000131931
50 *288:38 *499:8 0
51 *288:68 *499:8 0
52 *328:36 *1270:A1 1.59675e-05
53 *328:113 *499:44 1.8608e-05
54 *413:20 *1270:A1 8.1441e-05
55 *430:14 *1182:D1 8.53921e-05
56 *430:14 *1270:A1 2.9539e-05
57 *430:14 *499:44 0.000433544
58 *431:16 *1270:A1 0
59 *437:8 *1179:C1 4.66108e-05
*RES
1 *1631:X *499:8 15.18 
2 *499:8 *1179:C1 4.05 
3 *499:8 *499:19 10.6875 
4 *499:19 *499:21 0.5 
5 *499:21 *1182:D1 7.7201 
6 *499:21 *499:44 2.01907 
7 *499:44 *1184:C1 4.3325 
8 *499:44 *1270:A1 14.7214 
9 *499:19 *1186:B1 10.6875 
*END

*D_NET *500 0.0010563
*CONN
*I *1383:A1 I *D sky130_fd_sc_hd__mux2_1
*I *1597:X O *D sky130_fd_sc_hd__dlygate4sd3_1
*CAP
1 *1383:A1 0.000289369
2 *1597:X 0.000289369
3 *1348:A *1383:A1 8.23457e-05
4 *1351:S *1383:A1 3.67779e-05
5 *1383:A0 *1383:A1 8.35157e-05
6 *1383:S *1383:A1 4.92971e-05
7 *1406:A1 *1383:A1 4.43871e-06
8 *1504:D *1383:A1 0.000119625
9 *163:86 *1383:A1 1.54878e-05
10 *176:77 *1383:A1 0
11 *268:101 *1383:A1 2.23407e-05
12 *319:84 *1383:A1 6.37323e-05
*RES
1 *1597:X *1383:A1 13.065 
*END

*D_NET *501 0.000300946
*CONN
*I *1410:A0 I *D sky130_fd_sc_hd__mux2_1
*I *1598:X O *D sky130_fd_sc_hd__dlygate4sd3_1
*CAP
1 *1410:A0 0.00010634
2 *1598:X 0.00010634
3 *1410:S *1410:A0 8.8266e-05
*RES
1 *1598:X *1410:A0 5.03 
*END

*D_NET *502 0.000556917
*CONN
*I *1180:A I *D sky130_fd_sc_hd__xor2_1
*I *1599:X O *D sky130_fd_sc_hd__dlygate4sd3_1
*CAP
1 *1180:A 9.40081e-05
2 *1599:X 9.40081e-05
3 *1286:A_N *1180:A 8.57024e-05
4 *254:29 *1180:A 0.000141599
5 *444:12 *1180:A 0.000141599
*RES
1 *1599:X *1180:A 9.63 
*END

*D_NET *503 0.000919647
*CONN
*I *1397:A1 I *D sky130_fd_sc_hd__mux2_1
*I *1600:X O *D sky130_fd_sc_hd__dlygate4sd3_1
*CAP
1 *1397:A1 0.00026311
2 *1600:X 0.00026311
3 *1395:S *1397:A1 0.000180553
4 *1397:A0 *1397:A1 0
5 *1397:S *1397:A1 4.89295e-05
6 *1644:A *1397:A1 6.66768e-05
7 *1652:A *1397:A1 9.7268e-05
*RES
1 *1600:X *1397:A1 13.02 
*END

*D_NET *504 0.00105389
*CONN
*I *1393:A1 I *D sky130_fd_sc_hd__mux2_1
*I *1602:X O *D sky130_fd_sc_hd__dlygate4sd3_1
*CAP
1 *1393:A1 0.00032923
2 *1602:X 0.00032923
3 *1221:B2 *1393:A1 0.000163204
4 *165:90 *1393:A1 7.23602e-05
5 *172:53 *1393:A1 0.000159864
*RES
1 *1602:X *1393:A1 11.97 
*END

*D_NET *505 0.000739583
*CONN
*I *1408:A0 I *D sky130_fd_sc_hd__mux2_1
*I *1603:X O *D sky130_fd_sc_hd__dlygate4sd3_1
*CAP
1 *1408:A0 0.000200371
2 *1603:X 0.000200371
3 *1236:A2 *1408:A0 0.000197243
4 *1336:A *1408:A0 0
5 *372:12 *1408:A0 0
6 *444:81 *1408:A0 2.30797e-05
7 *444:83 *1408:A0 0.00011852
*RES
1 *1603:X *1408:A0 10.665 
*END

*D_NET *506 0.000697442
*CONN
*I *1412:A0 I *D sky130_fd_sc_hd__mux2_1
*I *1604:X O *D sky130_fd_sc_hd__dlygate4sd3_1
*CAP
1 *1412:A0 0.000262058
2 *1604:X 0.000262058
3 *1217:A *1412:A0 2.80029e-05
4 *1218:A2 *1412:A0 4.12144e-05
5 *1413:A *1412:A0 7.23602e-05
6 *1517:D *1412:A0 5.83121e-06
7 *1604:A *1412:A0 1.33293e-05
8 *466:35 *1412:A0 1.25877e-05
*RES
1 *1604:X *1412:A0 11.655 
*END

*D_NET *507 0.000494632
*CONN
*I *1404:A0 I *D sky130_fd_sc_hd__mux2_1
*I *1605:X O *D sky130_fd_sc_hd__dlygate4sd3_1
*CAP
1 *1404:A0 0.000195363
2 *1605:X 0.000195363
3 *1277:A *1404:A0 0
4 *334:86 *1404:A0 3.86607e-05
5 *422:14 *1404:A0 2.11084e-05
6 *422:30 *1404:A0 4.41363e-05
*RES
1 *1605:X *1404:A0 9.9 
*END

*D_NET *508 0.000414298
*CONN
*I *1258:A0 I *D sky130_fd_sc_hd__mux2_1
*I *1606:X O *D sky130_fd_sc_hd__dlygate4sd3_1
*CAP
1 *1258:A0 0.000173994
2 *1606:X 0.000173994
3 *425:28 *1258:A0 6.63089e-05
4 *466:35 *1258:A0 0
*RES
1 *1606:X *1258:A0 9.555 
*END

*D_NET *509 0.000682535
*CONN
*I *1161:A I *D sky130_fd_sc_hd__xnor2_1
*I *1607:X O *D sky130_fd_sc_hd__dlygate4sd3_1
*CAP
1 *1161:A 0.000223832
2 *1607:X 0.000223832
3 *1161:B *1161:A 0.00019621
4 *499:8 *1161:A 3.86607e-05
*RES
1 *1607:X *1161:A 10.77 
*END

*D_NET *510 0.00392538
*CONN
*I *1155:A_N I *D sky130_fd_sc_hd__and2b_1
*I *1154:B_N I *D sky130_fd_sc_hd__nor2b_2
*I *1177:A I *D sky130_fd_sc_hd__clkbuf_4
*I *1472:Q O *D sky130_fd_sc_hd__dfrtp_1
*CAP
1 *1155:A_N 0.000387647
2 *1154:B_N 0
3 *1177:A 0.000196151
4 *1472:Q 6.88288e-05
5 *510:19 0.000647163
6 *510:6 0.000524496
7 *1155:A_N *1155:B 8.40213e-05
8 *1155:A_N *515:44 0.000116165
9 *1177:A *1152:B 0
10 *1177:A *1174:B_N 5.91935e-05
11 *158:45 *510:6 0.00015806
12 *158:45 *510:19 0.000301306
13 *167:136 *1155:A_N 0.000226591
14 *167:136 *510:19 0.000689564
15 *168:38 *1155:A_N 0.000347645
16 *168:38 *1177:A 0.000114492
17 *245:20 *1177:A 0
18 *329:14 *510:6 4.05674e-06
*RES
1 *1472:Q *510:6 3.085 
2 *510:6 *1177:A 9.02 
3 *510:6 *510:19 6.66 
4 *510:19 *1154:B_N 1.6 
5 *510:19 *1155:A_N 13.415 
*END

*D_NET *511 0.00157789
*CONN
*I *1171:A I *D sky130_fd_sc_hd__buf_2
*I *1153:B I *D sky130_fd_sc_hd__xor2_2
*I *1473:Q O *D sky130_fd_sc_hd__dfrtp_1
*CAP
1 *1171:A 5.17409e-05
2 *1153:B 0.000109178
3 *1473:Q 0.000305899
4 *511:10 0.000466818
5 *511:10 *1200:C 1.42674e-05
6 *1185:A2 *511:10 5.77897e-05
7 *1535:CLK *1171:A 4.66826e-05
8 *1538:A *1153:B 0.000154116
9 *1538:A *511:10 8.7152e-06
10 *152:12 *1153:B 0
11 *152:12 *1171:A 8.40269e-05
12 *152:12 *511:10 0
13 *152:18 *511:10 6.81824e-05
14 *245:20 *1153:B 0
15 *328:113 *511:10 0.000118576
16 *330:10 *511:10 9.18988e-05
*RES
1 *1473:Q *511:10 9.045 
2 *511:10 *1153:B 3.89 
3 *511:10 *1171:A 5.115 
*END

*D_NET *512 0.0074888
*CONN
*I *1199:A I *D sky130_fd_sc_hd__nor3b_4
*I *1200:C I *D sky130_fd_sc_hd__and3b_4
*I *1195:C I *D sky130_fd_sc_hd__and3b_1
*I *1181:A I *D sky130_fd_sc_hd__clkbuf_4
*I *1191:A_N I *D sky130_fd_sc_hd__and3b_4
*I *1192:A I *D sky130_fd_sc_hd__nor3b_2
*I *1174:A I *D sky130_fd_sc_hd__or2b_1
*I *1152:B I *D sky130_fd_sc_hd__xor2_2
*I *1178:A I *D sky130_fd_sc_hd__and3_4
*I *1474:Q O *D sky130_fd_sc_hd__dfrtp_4
*CAP
1 *1199:A 2.93774e-05
2 *1200:C 9.06894e-05
3 *1195:C 0
4 *1181:A 4.45313e-05
5 *1191:A_N 0
6 *1192:A 0
7 *1174:A 0
8 *1152:B 0.000283675
9 *1178:A 0
10 *1474:Q 0.000125183
11 *512:82 0.000276304
12 *512:75 0.000307031
13 *512:59 0.000133355
14 *512:48 0.000135876
15 *512:44 0.000277734
16 *512:23 0.000536191
17 *512:21 0.000679875
18 *512:12 0.000472654
19 *1152:B *1152:A 5.19006e-06
20 *1152:B *1174:B_N 0
21 *1152:B *516:53 0.000271125
22 *1177:A *1152:B 0
23 *1178:B *512:21 3.38041e-05
24 *1179:A1 *512:12 0.000202781
25 *1183:A1 *512:21 6.68173e-06
26 *1183:A1 *512:44 4.42578e-05
27 *1183:A1 *512:48 1.50965e-05
28 *1183:A1 *512:59 4.42856e-05
29 *1185:A2 *1200:C 0.000121036
30 *1185:A2 *512:75 1.32102e-05
31 *1195:A_N *512:75 8.77639e-05
32 *1195:A_N *512:82 6.33103e-05
33 *1196:A *512:82 1.19928e-05
34 *1473:RESET_B *512:23 0.000178027
35 *1473:RESET_B *512:44 0.000156124
36 *152:18 *1200:C 0.000173434
37 *152:24 *1199:A 3.09774e-05
38 *152:24 *512:82 1.91597e-05
39 *152:61 *1181:A 0.000232442
40 *157:16 *512:21 4.38278e-05
41 *158:6 *512:21 1.4389e-05
42 *158:83 *512:21 2.01259e-05
43 *163:154 *512:12 0.000201114
44 *167:6 *1181:A 0.000121659
45 *167:10 *512:59 9.23804e-06
46 *167:136 *1181:A 0.000121659
47 *168:38 *1152:B 0
48 *245:20 *1200:C 8.86398e-05
49 *268:26 *1152:B 0.000217034
50 *288:68 *1152:B 0.000246141
51 *288:68 *512:23 0.000698158
52 *288:68 *512:44 0.000202501
53 *288:68 *512:48 5.74616e-05
54 *288:68 *512:59 0.0001874
55 *329:14 *512:23 7.1635e-05
56 *329:105 *512:23 7.03765e-05
57 *437:42 *1152:B 0
58 *437:42 *512:23 0
59 *511:10 *1200:C 1.42674e-05
*RES
1 *1474:Q *512:12 8.795 
2 *512:12 *1178:A 1.6 
3 *512:12 *512:21 5.9 
4 *512:21 *512:23 8.265 
5 *512:23 *1152:B 9.4625 
6 *512:23 *1174:A 3.6 
7 *512:21 *512:44 2.91 
8 *512:44 *512:48 1.065 
9 *512:48 *1192:A 3.6 
10 *512:48 *512:59 4.4 
11 *512:59 *1191:A_N 1.6 
12 *512:59 *1181:A 3.775 
13 *512:44 *512:75 3.83 
14 *512:75 *1195:C 1.6 
15 *512:75 *512:82 1.83 
16 *512:82 *1200:C 8.225 
17 *512:82 *1199:A 2.215 
*END

*D_NET *513 0.00192988
*CONN
*I *1599:A I *D sky130_fd_sc_hd__dlygate4sd3_1
*I *1158:B I *D sky130_fd_sc_hd__xnor2_4
*I *1475:Q O *D sky130_fd_sc_hd__dfrtp_2
*CAP
1 *1599:A 0.000233089
2 *1158:B 0.000511252
3 *1475:Q 0
4 *513:6 0.000744341
5 *1286:A_N *1599:A 3.07153e-05
6 *1287:A *1599:A 5.39673e-05
7 *1633:A *1599:A 3.64974e-05
8 *1637:A *1599:A 0
9 *244:47 *1158:B 0.000122194
10 *244:51 *1158:B 0.000197826
*RES
1 *1475:Q *513:6 3.6 
2 *513:6 *1158:B 12.24 
3 *513:6 *1599:A 7.95 
*END

*D_NET *514 0.00914973
*CONN
*I *1345:B I *D sky130_fd_sc_hd__and3b_1
*I *1418:B I *D sky130_fd_sc_hd__and3b_1
*I *1326:B I *D sky130_fd_sc_hd__nor2_1
*I *1436:A_N I *D sky130_fd_sc_hd__and3b_1
*I *1154:A I *D sky130_fd_sc_hd__nor2b_2
*I *1363:A_N I *D sky130_fd_sc_hd__and3b_1
*I *1155:B I *D sky130_fd_sc_hd__and2b_1
*I *1159:C1 I *D sky130_fd_sc_hd__o2111a_1
*I *1169:B1 I *D sky130_fd_sc_hd__a21oi_1
*I *1166:A I *D sky130_fd_sc_hd__and3_1
*I *1476:Q O *D sky130_fd_sc_hd__dfrtp_4
*CAP
1 *1345:B 0
2 *1418:B 3.21472e-05
3 *1326:B 5.76844e-05
4 *1436:A_N 7.8511e-05
5 *1154:A 0.000104333
6 *1363:A_N 1.36534e-05
7 *1155:B 2.01995e-05
8 *1159:C1 0.000210955
9 *1169:B1 0
10 *1166:A 9.36896e-06
11 *1476:Q 0.000393502
12 *514:115 0.000421806
13 *514:92 0.000453078
14 *514:83 0.000163571
15 *514:70 6.95501e-05
16 *514:59 0.000320854
17 *514:53 0.000485622
18 *514:16 5.29544e-05
19 *514:14 0.000477297
20 *514:10 0.000840476
21 *1159:C1 *1325:A_N 4.77769e-05
22 *1326:B *1326:A 7.36562e-05
23 *1436:A_N *1345:A_N 5.4003e-05
24 *1436:A_N *515:65 2.96342e-05
25 *514:59 *1345:A_N 4.77807e-05
26 *514:115 *1326:A 7.21296e-06
27 *514:115 *1363:C 2.75145e-05
28 *1155:A_N *1155:B 8.40213e-05
29 *1157:A *1154:A 0.000273639
30 *1159:D1 *1159:C1 0.000463583
31 *1166:B *1166:A 1.9872e-05
32 *1166:B *514:16 2.58336e-05
33 *1271:A *514:14 0.000159179
34 *1272:A1 *1159:C1 0.000133329
35 *1327:B *1436:A_N 1.38088e-05
36 *1327:B *514:115 0.000154867
37 *1345:C *514:53 3.62258e-06
38 *1345:C *514:59 1.34687e-05
39 *1399:C *514:59 6.07575e-06
40 *1400:A *1436:A_N 4.66108e-05
41 *1401:A *1418:B 2.30292e-05
42 *1401:A *1436:A_N 4.66108e-05
43 *1401:A *514:115 6.38806e-05
44 *1418:C *514:115 0.000133702
45 *1419:A *1326:B 7.36562e-05
46 *1647:A *1436:A_N 0.000155554
47 *1647:A *514:59 0.000264595
48 *1647:A *514:70 0.000112123
49 *1647:A *514:83 4.9968e-05
50 *37:10 *514:10 0
51 *142:8 *1154:A 2.16917e-05
52 *148:27 *1159:C1 2.85623e-05
53 *148:27 *1166:A 4.89295e-05
54 *148:27 *514:16 0.000122797
55 *148:34 *514:14 0.000254353
56 *148:34 *514:16 4.77807e-05
57 *158:45 *1154:A 0.000345544
58 *158:45 *1363:A_N 4.66108e-05
59 *158:45 *514:92 7.3151e-05
60 *158:45 *514:115 0.000146408
61 *167:136 *1154:A 5.95279e-05
62 *167:136 *1363:A_N 4.66108e-05
63 *168:38 *1155:B 8.40213e-05
64 *245:132 *1159:C1 0.00036052
65 *255:8 *514:53 3.72007e-05
66 *256:10 *514:115 7.4027e-05
67 *258:14 *514:115 0
68 *258:40 *514:115 0
69 *268:26 *514:53 6.28206e-06
70 *268:26 *514:59 7.03901e-06
71 *297:14 *514:59 0.000289203
72 *297:14 *514:70 0.000105266
73 *297:14 *514:83 4.21314e-05
74 *413:77 *514:16 2.23611e-05
75 *426:10 *514:10 6.55406e-05
*RES
1 *1476:Q *514:10 9.9 
2 *514:10 *514:14 5.9 
3 *514:14 *514:16 1.485 
4 *514:16 *1166:A 2.05 
5 *514:16 *1169:B1 1.6 
6 *514:14 *1159:C1 12.995 
7 *514:10 *514:53 5.615 
8 *514:53 *514:59 7.34 
9 *514:59 *1155:B 4.395 
10 *514:59 *514:70 1.38 
11 *514:70 *1363:A_N 4.05 
12 *514:70 *514:83 2.615 
13 *514:83 *1154:A 5.5 
14 *514:83 *514:92 0.795 
15 *514:92 *1436:A_N 7.94 
16 *514:92 *514:115 9.97 
17 *514:115 *1326:B 7.235 
18 *514:115 *1418:B 2.05 
19 *514:53 *1345:B 1.6 
*END

*D_NET *515 0.00836536
*CONN
*I *1153:A I *D sky130_fd_sc_hd__xor2_2
*I *1326:A I *D sky130_fd_sc_hd__nor2_1
*I *1418:A_N I *D sky130_fd_sc_hd__and3b_1
*I *1436:C I *D sky130_fd_sc_hd__and3b_1
*I *1363:C I *D sky130_fd_sc_hd__and3b_1
*I *1345:A_N I *D sky130_fd_sc_hd__and3b_1
*I *1172:B_N I *D sky130_fd_sc_hd__or2b_1
*I *1159:B1 I *D sky130_fd_sc_hd__o2111a_1
*I *1167:A I *D sky130_fd_sc_hd__nor2_1
*I *1477:Q O *D sky130_fd_sc_hd__dfrtp_4
*CAP
1 *1153:A 0.000321502
2 *1326:A 0.000136214
3 *1418:A_N 0
4 *1436:C 0
5 *1363:C 3.70194e-05
6 *1345:A_N 0.000293798
7 *1172:B_N 0
8 *1159:B1 0
9 *1167:A 0.000148486
10 *1477:Q 0.00025067
11 *515:102 0.000213452
12 *515:91 0.000107166
13 *515:65 0.000365418
14 *515:61 0.000398529
15 *515:50 0.000388325
16 *515:44 0.000795159
17 *515:18 0.000281128
18 *515:14 0.000802645
19 *1155:A_N *515:44 0.000116165
20 *1156:D *515:50 8.64421e-05
21 *1156:D *515:61 0.000150568
22 *1159:A1 *515:44 0.000218113
23 *1159:D1 *515:18 0.000196678
24 *1167:B *1167:A 1.63132e-05
25 *1170:A *515:14 0.000139238
26 *1172:A *1153:A 9.54399e-05
27 *1272:A1 *515:14 0
28 *1273:A *1153:A 6.75787e-05
29 *1282:A *1153:A 4.00541e-06
30 *1282:B *1153:A 8.77498e-05
31 *1322:A *1167:A 7.64694e-06
32 *1322:A *515:14 3.48914e-05
33 *1326:B *1326:A 7.36562e-05
34 *1327:B *1345:A_N 4.98924e-05
35 *1327:B *515:65 6.83447e-05
36 *1363:B *1345:A_N 7.53115e-05
37 *1399:C *1345:A_N 2.19016e-05
38 *1400:A *515:61 0.000301809
39 *1400:A *515:91 4.66108e-05
40 *1400:A *515:102 4.35648e-05
41 *1401:A *1326:A 4.66108e-05
42 *1401:A *515:102 9.32633e-05
43 *1418:C *1326:A 4.9968e-05
44 *1436:A_N *1345:A_N 5.4003e-05
45 *1436:A_N *515:65 2.96342e-05
46 *1437:A *1326:A 3.74161e-05
47 *1437:A *515:102 8.01231e-05
48 *1476:CLK *515:14 0.000197826
49 *1476:D *515:14 0.000112513
50 *1477:RESET_B *1167:A 2.49155e-05
51 *1647:A *1326:A 0
52 *1647:A *1345:A_N 0.000178124
53 *138:30 *1153:A 2.54522e-05
54 *140:8 *515:44 0
55 *140:21 *515:44 0
56 *142:10 *515:44 0.00036852
57 *142:40 *1153:A 2.13396e-05
58 *142:40 *515:44 0.000136877
59 *144:46 *1167:A 1.77945e-05
60 *148:12 *515:14 7.03219e-05
61 *148:12 *515:44 0.000194024
62 *158:45 *515:44 4.61701e-06
63 *255:8 *1345:A_N 1.82111e-05
64 *255:19 *1345:A_N 6.90544e-05
65 *256:10 *1326:A 0
66 *258:40 *1326:A 0
67 *268:26 *1345:A_N 1.08105e-05
68 *514:59 *1345:A_N 4.77807e-05
69 *514:115 *1326:A 7.21296e-06
70 *514:115 *1363:C 2.75145e-05
*RES
1 *1477:Q *515:14 9.66 
2 *515:14 *515:18 3.83 
3 *515:18 *1167:A 8.33 
4 *515:18 *1159:B1 1.6 
5 *515:14 *515:44 9.48 
6 *515:44 *515:50 3.155 
7 *515:50 *1172:B_N 1.6 
8 *515:50 *515:61 5.31 
9 *515:61 *515:65 2.87 
10 *515:65 *1345:A_N 9.81 
11 *515:65 *1363:C 4.05 
12 *515:61 *515:91 0.45 
13 *515:91 *1436:C 1.6 
14 *515:91 *515:102 1.86 
15 *515:102 *1418:A_N 1.6 
16 *515:102 *1326:A 8.45 
17 *515:44 *1153:A 9.405 
*END

*D_NET *516 0.00649828
*CONN
*I *1174:B_N I *D sky130_fd_sc_hd__or2b_1
*I *1152:A I *D sky130_fd_sc_hd__xor2_2
*I *1399:A I *D sky130_fd_sc_hd__and4_1
*I *1325:A_N I *D sky130_fd_sc_hd__and4b_1
*I *1160:A I *D sky130_fd_sc_hd__nand2_2
*I *1381:A I *D sky130_fd_sc_hd__or3b_1
*I *1162:A I *D sky130_fd_sc_hd__or2_1
*I *1478:Q O *D sky130_fd_sc_hd__dfrtp_4
*CAP
1 *1174:B_N 0.000262038
2 *1152:A 2.52315e-05
3 *1399:A 0
4 *1325:A_N 0.000128152
5 *1160:A 0
6 *1381:A 3.41534e-05
7 *1162:A 0.000306805
8 *1478:Q 6.72538e-05
9 *516:59 0.000809642
10 *516:53 0.000867503
11 *516:49 0.000587861
12 *516:40 0.000230095
13 *516:29 0.000191587
14 *516:6 0.00046644
15 *1152:B *1152:A 5.19006e-06
16 *1152:B *1174:B_N 0
17 *1152:B *516:53 0.000271125
18 *1159:C1 *1325:A_N 4.77769e-05
19 *1159:D1 *1325:A_N 1.33285e-05
20 *1163:B *516:40 0.000138596
21 *1163:B *516:49 0.000156159
22 *1164:A *1162:A 2.75145e-05
23 *1164:A *516:29 8.53113e-06
24 *1164:A *516:40 0.000190866
25 *1164:A *516:49 0.000104264
26 *1165:A *516:59 1.26985e-05
27 *1165:B *516:59 0.000144883
28 *1175:B1 *1174:B_N 7.35729e-05
29 *1177:A *1174:B_N 5.91935e-05
30 *1382:A *1162:A 0
31 *1382:A *1381:A 5.83121e-06
32 *1399:B *1325:A_N 7.08331e-05
33 *1399:D *516:59 0.000129177
34 *1478:CLK *1162:A 4.80182e-05
35 *1478:CLK *516:29 0
36 *148:6 *516:59 4.66108e-05
37 *244:8 *516:6 5.83121e-06
38 *244:21 *516:29 5.21714e-05
39 *244:21 *516:40 2.46007e-05
40 *245:132 *1325:A_N 0.000121043
41 *268:26 *1152:A 2.01737e-05
42 *268:26 *516:53 8.28018e-06
43 *268:26 *516:59 1.58625e-05
44 *288:38 *1162:A 0.000237713
45 *288:38 *516:6 3.43327e-05
46 *288:38 *516:29 0
47 *329:62 *1381:A 8.65961e-05
48 *413:36 *1325:A_N 4.77807e-05
49 *437:8 *1174:B_N 0.000312958
50 *499:8 *1162:A 0
*RES
1 *1478:Q *516:6 2.74 
2 *516:6 *1162:A 11.525 
3 *516:6 *516:29 3.635 
4 *516:29 *1381:A 4.395 
5 *516:29 *516:40 2.4 
6 *516:40 *1160:A 3.6 
7 *516:40 *516:49 3.675 
8 *516:49 *516:53 5.21 
9 *516:53 *516:59 8.76 
10 *516:59 *1325:A_N 8.375 
11 *516:59 *1399:A 1.6 
12 *516:53 *1152:A 2.41 
13 *516:49 *1174:B_N 8.97 
*END

*D_NET *517 0.000972342
*CONN
*I *1607:A I *D sky130_fd_sc_hd__dlygate4sd3_1
*I *1158:A I *D sky130_fd_sc_hd__xnor2_4
*I *1479:Q O *D sky130_fd_sc_hd__dfrtp_2
*CAP
1 *1607:A 0.000103916
2 *1158:A 0.000106719
3 *1479:Q 4.56702e-05
4 *517:6 0.000256305
5 *329:41 *1607:A 0.000265565
6 *329:41 *517:6 0.00012657
7 *499:8 *1158:A 6.75968e-05
*RES
1 *1479:Q *517:6 2.74 
2 *517:6 *1158:A 7.745 
3 *517:6 *1607:A 4.12 
*END
