*SPEF "ieee 1481-1999"
*DESIGN "syn_fifo"
*DATE "11:11:11 Fri 11 11, 1111"
*VENDOR "OpenRCX"
*PROGRAM "Parallel Extraction"
*VERSION "1.0"
*DESIGN_FLOW "NAME_SCOPE LOCAL" "PIN_CAP NONE"
*DIVIDER /
*DELIMITER :
*BUS_DELIMITER []
*T_UNIT 1 NS
*C_UNIT 1 PF
*R_UNIT 1 OHM
*L_UNIT 1 HENRY

*NAME_MAP
*3 almost_empty
*4 almost_full
*5 clk
*6 din[0]
*7 din[1]
*8 din[2]
*9 din[3]
*10 din[4]
*11 din[5]
*12 din[6]
*13 din[7]
*14 dout[0]
*15 dout[1]
*16 dout[2]
*17 dout[3]
*18 dout[4]
*19 dout[5]
*20 dout[6]
*21 dout[7]
*22 empty
*23 full
*24 overrun
*25 rd
*26 rst
*27 underrun
*28 unused[0]
*29 unused[1]
*30 unused[2]
*31 unused[3]
*32 used[0]
*33 used[1]
*34 used[2]
*35 used[3]
*36 wr
*37 _000_
*38 _001_
*39 _002_
*40 _003_
*41 _004_
*42 _005_
*43 _006_
*44 _007_
*45 _008_
*46 _009_
*47 _010_
*48 _011_
*49 _012_
*50 _013_
*51 _014_
*52 _015_
*53 _016_
*54 _017_
*55 _018_
*56 _019_
*57 _020_
*58 _021_
*59 _022_
*60 _023_
*61 _024_
*62 _025_
*63 _026_
*64 _027_
*65 _028_
*66 _029_
*67 _030_
*68 _031_
*69 _032_
*70 _033_
*71 _034_
*72 _035_
*73 _036_
*74 _037_
*75 _038_
*76 _039_
*77 _040_
*78 _041_
*79 _042_
*80 _043_
*81 _044_
*82 _045_
*83 _046_
*84 _047_
*85 _048_
*86 _049_
*87 _050_
*88 _051_
*89 _052_
*90 _053_
*91 _054_
*92 _055_
*93 _056_
*94 _057_
*95 _058_
*96 _059_
*97 _060_
*98 _061_
*99 _062_
*100 _063_
*101 _064_
*102 _065_
*103 _066_
*104 _067_
*105 _068_
*106 _069_
*107 _070_
*108 _071_
*109 _072_
*110 _073_
*111 _074_
*112 _075_
*113 _076_
*114 _077_
*115 _078_
*116 _079_
*117 _080_
*118 _081_
*119 _082_
*120 _083_
*121 _084_
*122 _085_
*123 _086_
*124 _087_
*125 _088_
*126 _089_
*127 _090_
*128 _091_
*129 _092_
*130 _093_
*131 _094_
*132 _095_
*133 _096_
*134 _097_
*135 _098_
*136 _099_
*137 _100_
*138 _101_
*139 _102_
*140 _103_
*141 _104_
*142 _105_
*143 _106_
*144 _107_
*145 _108_
*146 _109_
*147 _110_
*148 _111_
*149 _112_
*150 _113_
*151 _114_
*152 _115_
*153 _116_
*154 _117_
*155 _118_
*156 _119_
*157 _120_
*158 _121_
*159 _122_
*160 _123_
*161 _124_
*162 _125_
*163 _126_
*164 _127_
*165 _128_
*166 _129_
*167 _130_
*168 _131_
*169 _132_
*170 _133_
*171 _134_
*172 _135_
*173 _136_
*174 _137_
*175 _138_
*176 _139_
*177 _140_
*178 _141_
*179 _142_
*180 _143_
*181 _144_
*182 _145_
*183 _146_
*184 _147_
*185 _148_
*186 _149_
*187 _150_
*188 _151_
*189 _152_
*190 _153_
*191 _154_
*192 _155_
*193 _156_
*194 _157_
*195 _158_
*196 _159_
*197 _160_
*198 _161_
*199 _162_
*200 _163_
*201 _164_
*202 _165_
*203 _166_
*204 _167_
*205 _168_
*206 _169_
*207 _170_
*208 _171_
*209 _172_
*210 _173_
*211 _174_
*212 _175_
*213 _176_
*214 _177_
*215 _178_
*216 _179_
*217 _180_
*218 _181_
*219 _182_
*220 _183_
*221 _184_
*222 _185_
*223 _186_
*224 _187_
*225 _188_
*226 _189_
*227 _190_
*228 _191_
*229 _192_
*230 _193_
*231 _194_
*232 _195_
*233 _196_
*234 _197_
*235 _198_
*236 _199_
*237 _200_
*238 _201_
*239 _202_
*240 _203_
*241 _204_
*242 _205_
*243 _206_
*244 _207_
*245 _208_
*246 _209_
*247 _210_
*248 _211_
*249 _212_
*250 _213_
*251 _214_
*252 _215_
*253 _216_
*254 _217_
*255 _218_
*256 _219_
*257 _220_
*258 _221_
*259 _222_
*260 _223_
*261 _224_
*262 _225_
*263 _226_
*264 _227_
*265 _228_
*266 _229_
*267 _230_
*268 _231_
*269 _232_
*270 _233_
*271 _234_
*272 _235_
*273 _236_
*274 _237_
*275 _238_
*276 _239_
*277 _240_
*278 _241_
*279 _242_
*280 _243_
*281 _244_
*282 _245_
*283 _246_
*284 _247_
*285 _248_
*286 _249_
*287 _250_
*288 _251_
*289 _252_
*290 _253_
*291 _254_
*292 _255_
*293 _256_
*294 _257_
*295 _258_
*296 _259_
*297 _260_
*298 _261_
*299 _262_
*300 _263_
*301 _264_
*302 _265_
*303 _266_
*304 _267_
*305 _268_
*306 _269_
*307 _270_
*308 _271_
*309 _272_
*310 _273_
*311 _274_
*312 _275_
*313 _276_
*314 _277_
*315 _278_
*316 _279_
*317 _280_
*318 _281_
*319 _282_
*320 _283_
*321 _284_
*322 _285_
*323 _286_
*324 _287_
*325 _288_
*326 _289_
*327 _290_
*328 clknet_0_clk
*329 clknet_3_0__leaf_clk
*330 clknet_3_1__leaf_clk
*331 clknet_3_2__leaf_clk
*332 clknet_3_3__leaf_clk
*333 clknet_3_4__leaf_clk
*334 clknet_3_5__leaf_clk
*335 clknet_3_6__leaf_clk
*336 clknet_3_7__leaf_clk
*337 fifo_mem\[0\]\[0\]
*338 fifo_mem\[0\]\[1\]
*339 fifo_mem\[0\]\[2\]
*340 fifo_mem\[0\]\[3\]
*341 fifo_mem\[0\]\[4\]
*342 fifo_mem\[0\]\[5\]
*343 fifo_mem\[0\]\[6\]
*344 fifo_mem\[0\]\[7\]
*345 fifo_mem\[1\]\[0\]
*346 fifo_mem\[1\]\[1\]
*347 fifo_mem\[1\]\[2\]
*348 fifo_mem\[1\]\[3\]
*349 fifo_mem\[1\]\[4\]
*350 fifo_mem\[1\]\[5\]
*351 fifo_mem\[1\]\[6\]
*352 fifo_mem\[1\]\[7\]
*353 fifo_mem\[2\]\[0\]
*354 fifo_mem\[2\]\[1\]
*355 fifo_mem\[2\]\[2\]
*356 fifo_mem\[2\]\[3\]
*357 fifo_mem\[2\]\[4\]
*358 fifo_mem\[2\]\[5\]
*359 fifo_mem\[2\]\[6\]
*360 fifo_mem\[2\]\[7\]
*361 fifo_mem\[3\]\[0\]
*362 fifo_mem\[3\]\[1\]
*363 fifo_mem\[3\]\[2\]
*364 fifo_mem\[3\]\[3\]
*365 fifo_mem\[3\]\[4\]
*366 fifo_mem\[3\]\[5\]
*367 fifo_mem\[3\]\[6\]
*368 fifo_mem\[3\]\[7\]
*369 fifo_mem\[4\]\[0\]
*370 fifo_mem\[4\]\[1\]
*371 fifo_mem\[4\]\[2\]
*372 fifo_mem\[4\]\[3\]
*373 fifo_mem\[4\]\[4\]
*374 fifo_mem\[4\]\[5\]
*375 fifo_mem\[4\]\[6\]
*376 fifo_mem\[4\]\[7\]
*377 fifo_mem\[5\]\[0\]
*378 fifo_mem\[5\]\[1\]
*379 fifo_mem\[5\]\[2\]
*380 fifo_mem\[5\]\[3\]
*381 fifo_mem\[5\]\[4\]
*382 fifo_mem\[5\]\[5\]
*383 fifo_mem\[5\]\[6\]
*384 fifo_mem\[5\]\[7\]
*385 fifo_mem\[6\]\[0\]
*386 fifo_mem\[6\]\[1\]
*387 fifo_mem\[6\]\[2\]
*388 fifo_mem\[6\]\[3\]
*389 fifo_mem\[6\]\[4\]
*390 fifo_mem\[6\]\[5\]
*391 fifo_mem\[6\]\[6\]
*392 fifo_mem\[6\]\[7\]
*393 fifo_mem\[7\]\[0\]
*394 fifo_mem\[7\]\[1\]
*395 fifo_mem\[7\]\[2\]
*396 fifo_mem\[7\]\[3\]
*397 fifo_mem\[7\]\[4\]
*398 fifo_mem\[7\]\[5\]
*399 fifo_mem\[7\]\[6\]
*400 fifo_mem\[7\]\[7\]
*401 net1
*402 net10
*403 net100
*404 net101
*405 net102
*406 net103
*407 net104
*408 net105
*409 net106
*410 net107
*411 net108
*412 net109
*413 net11
*414 net12
*415 net13
*416 net14
*417 net15
*418 net16
*419 net17
*420 net18
*421 net19
*422 net2
*423 net20
*424 net21
*425 net22
*426 net23
*427 net24
*428 net25
*429 net26
*430 net27
*431 net28
*432 net29
*433 net3
*434 net30
*435 net31
*436 net32
*437 net33
*438 net34
*439 net35
*440 net36
*441 net37
*442 net38
*443 net39
*444 net4
*445 net40
*446 net41
*447 net42
*448 net43
*449 net44
*450 net45
*451 net46
*452 net47
*453 net48
*454 net49
*455 net5
*456 net50
*457 net51
*458 net52
*459 net53
*460 net54
*461 net55
*462 net56
*463 net57
*464 net58
*465 net59
*466 net6
*467 net60
*468 net61
*469 net62
*470 net63
*471 net64
*472 net65
*473 net66
*474 net67
*475 net68
*476 net69
*477 net7
*478 net70
*479 net71
*480 net72
*481 net73
*482 net74
*483 net75
*484 net76
*485 net77
*486 net78
*487 net79
*488 net8
*489 net80
*490 net81
*491 net82
*492 net83
*493 net84
*494 net85
*495 net86
*496 net87
*497 net88
*498 net89
*499 net9
*500 net90
*501 net91
*502 net92
*503 net93
*504 net94
*505 net95
*506 net96
*507 net97
*508 net98
*509 net99
*510 rd_ptr\[0\]
*511 rd_ptr\[1\]
*512 rd_ptr\[2\]
*513 rd_ptr\[3\]
*514 wr_ptr\[0\]
*515 wr_ptr\[1\]
*516 wr_ptr\[2\]
*517 wr_ptr\[3\]
*518 FILLER_0_0_102
*519 FILLER_0_0_113
*520 FILLER_0_0_132
*521 FILLER_0_0_137
*522 FILLER_0_0_14
*523 FILLER_0_0_156
*524 FILLER_0_0_169
*525 FILLER_0_0_177
*526 FILLER_0_0_182
*527 FILLER_0_0_186
*528 FILLER_0_0_26
*529 FILLER_0_0_29
*530 FILLER_0_0_3
*531 FILLER_0_0_37
*532 FILLER_0_0_42
*533 FILLER_0_0_46
*534 FILLER_0_0_50
*535 FILLER_0_0_57
*536 FILLER_0_0_65
*537 FILLER_0_0_69
*538 FILLER_0_0_7
*539 FILLER_0_0_81
*540 FILLER_0_0_85
*541 FILLER_0_10_148
*542 FILLER_0_10_15
*543 FILLER_0_10_154
*544 FILLER_0_10_174
*545 FILLER_0_10_178
*546 FILLER_0_10_19
*547 FILLER_0_10_190
*548 FILLER_0_10_194
*549 FILLER_0_10_29
*550 FILLER_0_10_3
*551 FILLER_0_10_35
*552 FILLER_0_10_69
*553 FILLER_0_10_75
*554 FILLER_0_10_83
*555 FILLER_0_10_85
*556 FILLER_0_10_97
*557 FILLER_0_11_101
*558 FILLER_0_11_109
*559 FILLER_0_11_120
*560 FILLER_0_11_124
*561 FILLER_0_11_128
*562 FILLER_0_11_15
*563 FILLER_0_11_155
*564 FILLER_0_11_167
*565 FILLER_0_11_169
*566 FILLER_0_11_177
*567 FILLER_0_11_23
*568 FILLER_0_11_3
*569 FILLER_0_11_54
*570 FILLER_0_11_82
*571 FILLER_0_11_88
*572 FILLER_0_12_116
*573 FILLER_0_12_120
*574 FILLER_0_12_15
*575 FILLER_0_12_150
*576 FILLER_0_12_176
*577 FILLER_0_12_193
*578 FILLER_0_12_27
*579 FILLER_0_12_29
*580 FILLER_0_12_3
*581 FILLER_0_12_74
*582 FILLER_0_12_82
*583 FILLER_0_13_113
*584 FILLER_0_13_121
*585 FILLER_0_13_146
*586 FILLER_0_13_177
*587 FILLER_0_13_181
*588 FILLER_0_13_3
*589 FILLER_0_13_33
*590 FILLER_0_13_37
*591 FILLER_0_13_54
*592 FILLER_0_13_57
*593 FILLER_0_13_76
*594 FILLER_0_13_84
*595 FILLER_0_13_9
*596 FILLER_0_13_90
*597 FILLER_0_14_117
*598 FILLER_0_14_124
*599 FILLER_0_14_137
*600 FILLER_0_14_158
*601 FILLER_0_14_170
*602 FILLER_0_14_174
*603 FILLER_0_14_25
*604 FILLER_0_14_29
*605 FILLER_0_14_3
*606 FILLER_0_14_50
*607 FILLER_0_14_56
*608 FILLER_0_14_68
*609 FILLER_0_14_76
*610 FILLER_0_14_80
*611 FILLER_0_14_85
*612 FILLER_0_14_99
*613 FILLER_0_15_110
*614 FILLER_0_15_149
*615 FILLER_0_15_169
*616 FILLER_0_15_182
*617 FILLER_0_15_21
*618 FILLER_0_15_52
*619 FILLER_0_15_57
*620 FILLER_0_15_67
*621 FILLER_0_15_9
*622 FILLER_0_15_98
*623 FILLER_0_16_10
*624 FILLER_0_16_120
*625 FILLER_0_16_148
*626 FILLER_0_16_167
*627 FILLER_0_16_193
*628 FILLER_0_16_24
*629 FILLER_0_16_29
*630 FILLER_0_16_3
*631 FILLER_0_16_52
*632 FILLER_0_16_83
*633 FILLER_0_16_94
*634 FILLER_0_17_111
*635 FILLER_0_17_120
*636 FILLER_0_17_134
*637 FILLER_0_17_140
*638 FILLER_0_17_150
*639 FILLER_0_17_164
*640 FILLER_0_17_183
*641 FILLER_0_17_23
*642 FILLER_0_17_34
*643 FILLER_0_17_45
*644 FILLER_0_17_53
*645 FILLER_0_17_60
*646 FILLER_0_17_68
*647 FILLER_0_17_74
*648 FILLER_0_18_108
*649 FILLER_0_18_11
*650 FILLER_0_18_116
*651 FILLER_0_18_134
*652 FILLER_0_18_15
*653 FILLER_0_18_165
*654 FILLER_0_18_175
*655 FILLER_0_18_27
*656 FILLER_0_18_3
*657 FILLER_0_18_45
*658 FILLER_0_18_71
*659 FILLER_0_18_83
*660 FILLER_0_18_85
*661 FILLER_0_18_89
*662 FILLER_0_19_111
*663 FILLER_0_19_113
*664 FILLER_0_19_125
*665 FILLER_0_19_156
*666 FILLER_0_19_167
*667 FILLER_0_19_169
*668 FILLER_0_19_3
*669 FILLER_0_19_66
*670 FILLER_0_19_7
*671 FILLER_0_19_70
*672 FILLER_0_19_87
*673 FILLER_0_19_99
*674 FILLER_0_1_129
*675 FILLER_0_1_13
*676 FILLER_0_1_155
*677 FILLER_0_1_167
*678 FILLER_0_1_169
*679 FILLER_0_1_181
*680 FILLER_0_1_193
*681 FILLER_0_1_25
*682 FILLER_0_1_29
*683 FILLER_0_1_57
*684 FILLER_0_1_63
*685 FILLER_0_1_67
*686 FILLER_0_1_77
*687 FILLER_0_1_87
*688 FILLER_0_20_103
*689 FILLER_0_20_122
*690 FILLER_0_20_134
*691 FILLER_0_20_141
*692 FILLER_0_20_147
*693 FILLER_0_20_15
*694 FILLER_0_20_177
*695 FILLER_0_20_26
*696 FILLER_0_20_37
*697 FILLER_0_20_7
*698 FILLER_0_20_81
*699 FILLER_0_20_85
*700 FILLER_0_21_110
*701 FILLER_0_21_130
*702 FILLER_0_21_135
*703 FILLER_0_21_139
*704 FILLER_0_21_147
*705 FILLER_0_21_153
*706 FILLER_0_21_166
*707 FILLER_0_21_169
*708 FILLER_0_21_192
*709 FILLER_0_21_3
*710 FILLER_0_21_43
*711 FILLER_0_21_48
*712 FILLER_0_21_76
*713 FILLER_0_21_86
*714 FILLER_0_22_101
*715 FILLER_0_22_118
*716 FILLER_0_22_126
*717 FILLER_0_22_150
*718 FILLER_0_22_168
*719 FILLER_0_22_175
*720 FILLER_0_22_185
*721 FILLER_0_22_194
*722 FILLER_0_22_26
*723 FILLER_0_22_74
*724 FILLER_0_22_80
*725 FILLER_0_23_10
*726 FILLER_0_23_122
*727 FILLER_0_23_166
*728 FILLER_0_23_3
*729 FILLER_0_23_38
*730 FILLER_0_23_55
*731 FILLER_0_23_57
*732 FILLER_0_23_83
*733 FILLER_0_23_87
*734 FILLER_0_24_13
*735 FILLER_0_24_137
*736 FILLER_0_24_157
*737 FILLER_0_24_170
*738 FILLER_0_24_18
*739 FILLER_0_24_182
*740 FILLER_0_24_186
*741 FILLER_0_24_26
*742 FILLER_0_24_29
*743 FILLER_0_24_41
*744 FILLER_0_24_68
*745 FILLER_0_24_80
*746 FILLER_0_24_85
*747 FILLER_0_24_9
*748 FILLER_0_24_97
*749 FILLER_0_25_111
*750 FILLER_0_25_144
*751 FILLER_0_25_159
*752 FILLER_0_25_167
*753 FILLER_0_25_169
*754 FILLER_0_25_177
*755 FILLER_0_25_191
*756 FILLER_0_25_3
*757 FILLER_0_25_33
*758 FILLER_0_25_55
*759 FILLER_0_25_57
*760 FILLER_0_25_61
*761 FILLER_0_25_71
*762 FILLER_0_25_90
*763 FILLER_0_26_111
*764 FILLER_0_26_122
*765 FILLER_0_26_15
*766 FILLER_0_26_160
*767 FILLER_0_26_174
*768 FILLER_0_26_19
*769 FILLER_0_26_29
*770 FILLER_0_26_3
*771 FILLER_0_26_73
*772 FILLER_0_27_104
*773 FILLER_0_27_137
*774 FILLER_0_27_146
*775 FILLER_0_27_15
*776 FILLER_0_27_193
*777 FILLER_0_27_27
*778 FILLER_0_27_3
*779 FILLER_0_27_55
*780 FILLER_0_27_57
*781 FILLER_0_27_76
*782 FILLER_0_27_92
*783 FILLER_0_28_106
*784 FILLER_0_28_112
*785 FILLER_0_28_124
*786 FILLER_0_28_133
*787 FILLER_0_28_139
*788 FILLER_0_28_141
*789 FILLER_0_28_15
*790 FILLER_0_28_153
*791 FILLER_0_28_165
*792 FILLER_0_28_170
*793 FILLER_0_28_182
*794 FILLER_0_28_188
*795 FILLER_0_28_194
*796 FILLER_0_28_27
*797 FILLER_0_28_29
*798 FILLER_0_28_3
*799 FILLER_0_28_33
*800 FILLER_0_28_37
*801 FILLER_0_28_45
*802 FILLER_0_28_56
*803 FILLER_0_28_68
*804 FILLER_0_28_73
*805 FILLER_0_28_77
*806 FILLER_0_28_81
*807 FILLER_0_28_94
*808 FILLER_0_29_122
*809 FILLER_0_29_130
*810 FILLER_0_29_15
*811 FILLER_0_29_154
*812 FILLER_0_29_166
*813 FILLER_0_29_169
*814 FILLER_0_29_181
*815 FILLER_0_29_27
*816 FILLER_0_29_3
*817 FILLER_0_29_39
*818 FILLER_0_29_47
*819 FILLER_0_29_53
*820 FILLER_0_2_108
*821 FILLER_0_2_114
*822 FILLER_0_2_118
*823 FILLER_0_2_124
*824 FILLER_0_2_133
*825 FILLER_0_2_139
*826 FILLER_0_2_15
*827 FILLER_0_2_161
*828 FILLER_0_2_173
*829 FILLER_0_2_185
*830 FILLER_0_2_27
*831 FILLER_0_2_3
*832 FILLER_0_2_36
*833 FILLER_0_2_59
*834 FILLER_0_30_122
*835 FILLER_0_30_161
*836 FILLER_0_30_173
*837 FILLER_0_30_185
*838 FILLER_0_30_193
*839 FILLER_0_30_21
*840 FILLER_0_30_27
*841 FILLER_0_30_29
*842 FILLER_0_30_37
*843 FILLER_0_30_80
*844 FILLER_0_30_9
*845 FILLER_0_30_94
*846 FILLER_0_31_128
*847 FILLER_0_31_133
*848 FILLER_0_31_15
*849 FILLER_0_31_153
*850 FILLER_0_31_165
*851 FILLER_0_31_169
*852 FILLER_0_31_181
*853 FILLER_0_31_189
*854 FILLER_0_31_27
*855 FILLER_0_31_3
*856 FILLER_0_31_39
*857 FILLER_0_31_44
*858 FILLER_0_31_57
*859 FILLER_0_31_66
*860 FILLER_0_31_72
*861 FILLER_0_31_77
*862 FILLER_0_31_94
*863 FILLER_0_32_110
*864 FILLER_0_32_119
*865 FILLER_0_32_127
*866 FILLER_0_32_135
*867 FILLER_0_32_139
*868 FILLER_0_32_141
*869 FILLER_0_32_15
*870 FILLER_0_32_153
*871 FILLER_0_32_161
*872 FILLER_0_32_167
*873 FILLER_0_32_169
*874 FILLER_0_32_181
*875 FILLER_0_32_23
*876 FILLER_0_32_27
*877 FILLER_0_32_29
*878 FILLER_0_32_3
*879 FILLER_0_32_41
*880 FILLER_0_32_51
*881 FILLER_0_32_55
*882 FILLER_0_32_57
*883 FILLER_0_32_67
*884 FILLER_0_32_79
*885 FILLER_0_32_83
*886 FILLER_0_32_85
*887 FILLER_0_3_100
*888 FILLER_0_3_129
*889 FILLER_0_3_141
*890 FILLER_0_3_155
*891 FILLER_0_3_167
*892 FILLER_0_3_169
*893 FILLER_0_3_177
*894 FILLER_0_3_181
*895 FILLER_0_3_3
*896 FILLER_0_3_36
*897 FILLER_0_3_46
*898 FILLER_0_3_55
*899 FILLER_0_3_66
*900 FILLER_0_3_75
*901 FILLER_0_3_85
*902 FILLER_0_4_107
*903 FILLER_0_4_115
*904 FILLER_0_4_138
*905 FILLER_0_4_148
*906 FILLER_0_4_15
*907 FILLER_0_4_154
*908 FILLER_0_4_174
*909 FILLER_0_4_3
*910 FILLER_0_4_56
*911 FILLER_0_4_64
*912 FILLER_0_4_76
*913 FILLER_0_4_85
*914 FILLER_0_4_95
*915 FILLER_0_5_104
*916 FILLER_0_5_108
*917 FILLER_0_5_154
*918 FILLER_0_5_163
*919 FILLER_0_5_167
*920 FILLER_0_5_30
*921 FILLER_0_5_42
*922 FILLER_0_5_70
*923 FILLER_0_5_78
*924 FILLER_0_6_10
*925 FILLER_0_6_100
*926 FILLER_0_6_138
*927 FILLER_0_6_172
*928 FILLER_0_6_176
*929 FILLER_0_6_194
*930 FILLER_0_6_22
*931 FILLER_0_6_27
*932 FILLER_0_6_29
*933 FILLER_0_6_3
*934 FILLER_0_6_40
*935 FILLER_0_6_78
*936 FILLER_0_6_91
*937 FILLER_0_7_105
*938 FILLER_0_7_111
*939 FILLER_0_7_113
*940 FILLER_0_7_12
*941 FILLER_0_7_138
*942 FILLER_0_7_16
*943 FILLER_0_7_166
*944 FILLER_0_7_169
*945 FILLER_0_7_3
*946 FILLER_0_7_51
*947 FILLER_0_7_55
*948 FILLER_0_7_57
*949 FILLER_0_7_80
*950 FILLER_0_7_97
*951 FILLER_0_8_110
*952 FILLER_0_8_118
*953 FILLER_0_8_135
*954 FILLER_0_8_139
*955 FILLER_0_8_141
*956 FILLER_0_8_15
*957 FILLER_0_8_153
*958 FILLER_0_8_170
*959 FILLER_0_8_174
*960 FILLER_0_8_184
*961 FILLER_0_8_194
*962 FILLER_0_8_21
*963 FILLER_0_8_25
*964 FILLER_0_8_29
*965 FILLER_0_8_3
*966 FILLER_0_8_41
*967 FILLER_0_8_65
*968 FILLER_0_8_81
*969 FILLER_0_9_101
*970 FILLER_0_9_109
*971 FILLER_0_9_11
*972 FILLER_0_9_119
*973 FILLER_0_9_149
*974 FILLER_0_9_166
*975 FILLER_0_9_169
*976 FILLER_0_9_192
*977 FILLER_0_9_3
*978 FILLER_0_9_35
*979 FILLER_0_9_43
*980 FILLER_0_9_47
*981 PHY_0
*982 PHY_1
*983 PHY_10
*984 PHY_11
*985 PHY_12
*986 PHY_13
*987 PHY_14
*988 PHY_15
*989 PHY_16
*990 PHY_17
*991 PHY_18
*992 PHY_19
*993 PHY_2
*994 PHY_20
*995 PHY_21
*996 PHY_22
*997 PHY_23
*998 PHY_24
*999 PHY_25
*1000 PHY_26
*1001 PHY_27
*1002 PHY_28
*1003 PHY_29
*1004 PHY_3
*1005 PHY_30
*1006 PHY_31
*1007 PHY_32
*1008 PHY_33
*1009 PHY_34
*1010 PHY_35
*1011 PHY_36
*1012 PHY_37
*1013 PHY_38
*1014 PHY_39
*1015 PHY_4
*1016 PHY_40
*1017 PHY_41
*1018 PHY_42
*1019 PHY_43
*1020 PHY_44
*1021 PHY_45
*1022 PHY_46
*1023 PHY_47
*1024 PHY_48
*1025 PHY_49
*1026 PHY_5
*1027 PHY_50
*1028 PHY_51
*1029 PHY_52
*1030 PHY_53
*1031 PHY_54
*1032 PHY_55
*1033 PHY_56
*1034 PHY_57
*1035 PHY_58
*1036 PHY_59
*1037 PHY_6
*1038 PHY_60
*1039 PHY_61
*1040 PHY_62
*1041 PHY_63
*1042 PHY_64
*1043 PHY_65
*1044 PHY_7
*1045 PHY_8
*1046 PHY_9
*1047 TAP_100
*1048 TAP_101
*1049 TAP_102
*1050 TAP_103
*1051 TAP_104
*1052 TAP_105
*1053 TAP_106
*1054 TAP_107
*1055 TAP_108
*1056 TAP_109
*1057 TAP_110
*1058 TAP_111
*1059 TAP_112
*1060 TAP_113
*1061 TAP_114
*1062 TAP_115
*1063 TAP_116
*1064 TAP_117
*1065 TAP_118
*1066 TAP_119
*1067 TAP_120
*1068 TAP_121
*1069 TAP_122
*1070 TAP_123
*1071 TAP_124
*1072 TAP_125
*1073 TAP_126
*1074 TAP_127
*1075 TAP_128
*1076 TAP_129
*1077 TAP_130
*1078 TAP_131
*1079 TAP_132
*1080 TAP_133
*1081 TAP_134
*1082 TAP_135
*1083 TAP_136
*1084 TAP_137
*1085 TAP_138
*1086 TAP_139
*1087 TAP_140
*1088 TAP_141
*1089 TAP_142
*1090 TAP_143
*1091 TAP_144
*1092 TAP_145
*1093 TAP_146
*1094 TAP_147
*1095 TAP_148
*1096 TAP_149
*1097 TAP_150
*1098 TAP_151
*1099 TAP_152
*1100 TAP_153
*1101 TAP_154
*1102 TAP_155
*1103 TAP_156
*1104 TAP_157
*1105 TAP_158
*1106 TAP_159
*1107 TAP_160
*1108 TAP_161
*1109 TAP_162
*1110 TAP_163
*1111 TAP_164
*1112 TAP_165
*1113 TAP_166
*1114 TAP_167
*1115 TAP_168
*1116 TAP_169
*1117 TAP_170
*1118 TAP_66
*1119 TAP_67
*1120 TAP_68
*1121 TAP_69
*1122 TAP_70
*1123 TAP_71
*1124 TAP_72
*1125 TAP_73
*1126 TAP_74
*1127 TAP_75
*1128 TAP_76
*1129 TAP_77
*1130 TAP_78
*1131 TAP_79
*1132 TAP_80
*1133 TAP_81
*1134 TAP_82
*1135 TAP_83
*1136 TAP_84
*1137 TAP_85
*1138 TAP_86
*1139 TAP_87
*1140 TAP_88
*1141 TAP_89
*1142 TAP_90
*1143 TAP_91
*1144 TAP_92
*1145 TAP_93
*1146 TAP_94
*1147 TAP_95
*1148 TAP_96
*1149 TAP_97
*1150 TAP_98
*1151 TAP_99
*1152 _291_
*1153 _292_
*1154 _293_
*1155 _294_
*1156 _295_
*1157 _296_
*1158 _297_
*1159 _298_
*1160 _299_
*1161 _300_
*1162 _301_
*1163 _302_
*1164 _303_
*1165 _304_
*1166 _305_
*1167 _306_
*1168 _307_
*1169 _308_
*1170 _309_
*1171 _310_
*1172 _311_
*1173 _312_
*1174 _313_
*1175 _314_
*1176 _315_
*1177 _316_
*1178 _317_
*1179 _318_
*1180 _319_
*1181 _320_
*1182 _321_
*1183 _322_
*1184 _323_
*1185 _324_
*1186 _325_
*1187 _326_
*1188 _327_
*1189 _328_
*1190 _329_
*1191 _330_
*1192 _331_
*1193 _332_
*1194 _333_
*1195 _334_
*1196 _335_
*1197 _336_
*1198 _337_
*1199 _338_
*1200 _339_
*1201 _340_
*1202 _341_
*1203 _342_
*1204 _343_
*1205 _344_
*1206 _345_
*1207 _346_
*1208 _347_
*1209 _348_
*1210 _349_
*1211 _350_
*1212 _351_
*1213 _352_
*1214 _353_
*1215 _354_
*1216 _355_
*1217 _356_
*1218 _357_
*1219 _358_
*1220 _359_
*1221 _360_
*1222 _361_
*1223 _362_
*1224 _363_
*1225 _364_
*1226 _365_
*1227 _366_
*1228 _367_
*1229 _368_
*1230 _369_
*1231 _370_
*1232 _371_
*1233 _372_
*1234 _373_
*1235 _374_
*1236 _375_
*1237 _376_
*1238 _377_
*1239 _378_
*1240 _379_
*1241 _380_
*1242 _381_
*1243 _382_
*1244 _383_
*1245 _384_
*1246 _385_
*1247 _386_
*1248 _387_
*1249 _388_
*1250 _389_
*1251 _390_
*1252 _391_
*1253 _392_
*1254 _393_
*1255 _394_
*1256 _395_
*1257 _396_
*1258 _397_
*1259 _398_
*1260 _399_
*1261 _400_
*1262 _401_
*1263 _402_
*1264 _403_
*1265 _404_
*1266 _405_
*1267 _406_
*1268 _407_
*1269 _408_
*1270 _409_
*1271 _410_
*1272 _411_
*1273 _412_
*1274 _413_
*1275 _414_
*1276 _415_
*1277 _416_
*1278 _417_
*1279 _418_
*1280 _419_
*1281 _420_
*1282 _421_
*1283 _422_
*1284 _423_
*1285 _424_
*1286 _425_
*1287 _426_
*1288 _427_
*1289 _428_
*1290 _429_
*1291 _430_
*1292 _431_
*1293 _432_
*1294 _433_
*1295 _434_
*1296 _435_
*1297 _436_
*1298 _437_
*1299 _438_
*1300 _439_
*1301 _440_
*1302 _441_
*1303 _442_
*1304 _443_
*1305 _444_
*1306 _445_
*1307 _446_
*1308 _447_
*1309 _448_
*1310 _449_
*1311 _450_
*1312 _451_
*1313 _452_
*1314 _453_
*1315 _454_
*1316 _455_
*1317 _456_
*1318 _457_
*1319 _458_
*1320 _459_
*1321 _460_
*1322 _461_
*1323 _462_
*1324 _463_
*1325 _464_
*1326 _465_
*1327 _466_
*1328 _467_
*1329 _468_
*1330 _469_
*1331 _470_
*1332 _471_
*1333 _472_
*1334 _473_
*1335 _474_
*1336 _475_
*1337 _476_
*1338 _477_
*1339 _478_
*1340 _479_
*1341 _480_
*1342 _481_
*1343 _482_
*1344 _483_
*1345 _484_
*1346 _485_
*1347 _486_
*1348 _487_
*1349 _488_
*1350 _489_
*1351 _490_
*1352 _491_
*1353 _492_
*1354 _493_
*1355 _494_
*1356 _495_
*1357 _496_
*1358 _497_
*1359 _498_
*1360 _499_
*1361 _500_
*1362 _501_
*1363 _502_
*1364 _503_
*1365 _504_
*1366 _505_
*1367 _506_
*1368 _507_
*1369 _508_
*1370 _509_
*1371 _510_
*1372 _511_
*1373 _512_
*1374 _513_
*1375 _514_
*1376 _515_
*1377 _516_
*1378 _517_
*1379 _518_
*1380 _519_
*1381 _520_
*1382 _521_
*1383 _522_
*1384 _523_
*1385 _524_
*1386 _525_
*1387 _526_
*1388 _527_
*1389 _528_
*1390 _529_
*1391 _530_
*1392 _531_
*1393 _532_
*1394 _533_
*1395 _534_
*1396 _535_
*1397 _536_
*1398 _537_
*1399 _538_
*1400 _539_
*1401 _540_
*1402 _541_
*1403 _542_
*1404 _543_
*1405 _544_
*1406 _545_
*1407 _546_
*1408 _547_
*1409 _548_
*1410 _549_
*1411 _550_
*1412 _551_
*1413 _552_
*1414 _553_
*1415 _554_
*1416 _555_
*1417 _556_
*1418 _557_
*1419 _558_
*1420 _559_
*1421 _560_
*1422 _561_
*1423 _562_
*1424 _563_
*1425 _564_
*1426 _565_
*1427 _566_
*1428 _567_
*1429 _568_
*1430 _569_
*1431 _570_
*1432 _571_
*1433 _572_
*1434 _573_
*1435 _574_
*1436 _575_
*1437 _576_
*1438 _577_
*1439 _578_
*1440 _579_
*1441 _580_
*1442 _581_
*1443 _582_
*1444 _583_
*1445 _584_
*1446 _585_
*1447 _586_
*1448 _587_
*1449 _588_
*1450 _589_
*1451 _590_
*1452 _591_
*1453 _592_
*1454 _593_
*1455 _594_
*1456 _595_
*1457 _596_
*1458 _597_
*1459 _598_
*1460 _599_
*1461 _600_
*1462 _601_
*1463 _602_
*1464 _603_
*1465 _604_
*1466 _605_
*1467 _606_
*1468 _607_
*1469 _608_
*1470 _609_
*1471 _610_
*1472 _611_
*1473 _612_
*1474 _613_
*1475 _614_
*1476 _615_
*1477 _616_
*1478 _617_
*1479 _618_
*1480 _619_
*1481 _620_
*1482 _621_
*1483 _622_
*1484 _623_
*1485 _624_
*1486 _625_
*1487 _626_
*1488 _627_
*1489 _628_
*1490 _629_
*1491 _630_
*1492 _631_
*1493 _632_
*1494 _633_
*1495 _634_
*1496 _635_
*1497 _636_
*1498 _637_
*1499 _638_
*1500 _639_
*1501 _640_
*1502 _641_
*1503 _642_
*1504 _643_
*1505 _644_
*1506 _645_
*1507 _646_
*1508 _647_
*1509 _648_
*1510 _649_
*1511 _650_
*1512 _651_
*1513 _652_
*1514 _653_
*1515 _654_
*1516 _655_
*1517 _656_
*1518 _657_
*1519 _658_
*1520 _659_
*1521 _660_
*1522 _661_
*1523 _662_
*1524 _663_
*1525 _664_
*1526 _665_
*1527 _666_
*1528 _667_
*1529 _668_
*1530 _669_
*1531 _670_
*1532 _671_
*1533 _672_
*1534 _673_
*1535 _674_
*1536 _675_
*1537 clkbuf_0_clk
*1538 clkbuf_3_0__f_clk
*1539 clkbuf_3_1__f_clk
*1540 clkbuf_3_2__f_clk
*1541 clkbuf_3_3__f_clk
*1542 clkbuf_3_4__f_clk
*1543 clkbuf_3_5__f_clk
*1544 clkbuf_3_6__f_clk
*1545 clkbuf_3_7__f_clk
*1546 hold1
*1547 hold10
*1548 hold11
*1549 hold12
*1550 hold13
*1551 hold14
*1552 hold15
*1553 hold16
*1554 hold17
*1555 hold18
*1556 hold19
*1557 hold2
*1558 hold20
*1559 hold21
*1560 hold22
*1561 hold23
*1562 hold24
*1563 hold25
*1564 hold26
*1565 hold27
*1566 hold28
*1567 hold29
*1568 hold3
*1569 hold30
*1570 hold31
*1571 hold32
*1572 hold33
*1573 hold34
*1574 hold35
*1575 hold36
*1576 hold37
*1577 hold38
*1578 hold39
*1579 hold4
*1580 hold40
*1581 hold41
*1582 hold42
*1583 hold43
*1584 hold44
*1585 hold45
*1586 hold46
*1587 hold47
*1588 hold48
*1589 hold49
*1590 hold5
*1591 hold50
*1592 hold51
*1593 hold52
*1594 hold53
*1595 hold54
*1596 hold55
*1597 hold56
*1598 hold57
*1599 hold58
*1600 hold59
*1601 hold6
*1602 hold60
*1603 hold61
*1604 hold62
*1605 hold63
*1606 hold64
*1607 hold65
*1608 hold66
*1609 hold67
*1610 hold68
*1611 hold69
*1612 hold7
*1613 hold70
*1614 hold71
*1615 hold72
*1616 hold73
*1617 hold74
*1618 hold75
*1619 hold8
*1620 hold9
*1621 input1
*1622 input10
*1623 input11
*1624 input2
*1625 input3
*1626 input4
*1627 input5
*1628 input6
*1629 input7
*1630 input8
*1631 input9
*1632 max_cap34
*1633 output12
*1634 output13
*1635 output14
*1636 output15
*1637 output16
*1638 output17
*1639 output18
*1640 output19
*1641 output20
*1642 output21
*1643 output22
*1644 output23
*1645 output24
*1646 output25
*1647 output26
*1648 output27
*1649 output28
*1650 output29
*1651 output30
*1652 output31
*1653 output32
*1654 output33

*PORTS
almost_empty O
almost_full O
clk I
din[0] I
din[1] I
din[2] I
din[3] I
din[4] I
din[5] I
din[6] I
din[7] I
dout[0] O
dout[1] O
dout[2] O
dout[3] O
dout[4] O
dout[5] O
dout[6] O
dout[7] O
empty O
full O
overrun O
rd I
rst I
underrun O
unused[0] O
unused[1] O
unused[2] O
unused[3] O
used[0] O
used[1] O
used[2] O
used[3] O
wr I

*D_NET *3 0.000691267
*CONN
*P almost_empty O
*I *1633:X O *D sky130_fd_sc_hd__clkbuf_4
*CAP
1 almost_empty 0.000345633
2 *1633:X 0.000345633
*RES
1 *1633:X almost_empty 20.9589 
*END

*D_NET *4 0.00125596
*CONN
*P almost_full O
*I *1634:X O *D sky130_fd_sc_hd__clkbuf_4
*CAP
1 almost_full 0.000563184
2 *1634:X 0.000563184
3 almost_full *1654:A 0.000129595
*RES
1 *1634:X almost_full 24.0857 
*END

*D_NET *5 0.0108777
*CONN
*P clk I
*I *1537:A I *D sky130_fd_sc_hd__clkbuf_16
*CAP
1 clk 0.00507102
2 *1537:A 0.00507102
3 *1537:A *1173:B1 0
4 *1537:A *1182:D1 4.95539e-05
5 *1537:A *1270:A1 5.6358e-05
6 *1537:A *1335:A0 0.000174805
7 *1537:A *163:191 0
8 *1537:A *258:56 0.000199698
9 *1537:A *299:22 0
10 *1537:A *328:79 0
11 *1537:A *328:113 1.74023e-05
12 *1537:A *430:14 0
13 *1537:A *499:44 0.000237848
*RES
1 clk *1537:A 36.9747 
*END

*D_NET *6 0.00119244
*CONN
*P din[0] I
*I *1621:A I *D sky130_fd_sc_hd__clkbuf_2
*CAP
1 din[0] 0.000496643
2 *1621:A 0.000496643
3 *1621:A unused[2] 0
4 *1621:A *1643:A 0.000142856
5 *1621:A *401:6 5.62995e-05
*RES
1 din[0] *1621:A 24.175 
*END

*D_NET *7 0.00202613
*CONN
*P din[1] I
*I *1624:A I *D sky130_fd_sc_hd__buf_2
*CAP
1 din[1] 0.000962587
2 *1624:A 0.000962587
3 *1624:A *1654:A 0.00010096
*RES
1 din[1] *1624:A 32.3893 
*END

*D_NET *8 0.00122045
*CONN
*P din[2] I
*I *1625:A I *D sky130_fd_sc_hd__clkbuf_2
*CAP
1 din[2] 0.00048579
2 *1625:A 0.00048579
3 *1625:A *1643:A 0.000142856
4 *1625:A *401:8 4.88637e-05
5 *1625:A *433:14 5.71472e-05
*RES
1 din[2] *1625:A 24.175 
*END

*D_NET *9 0.00124631
*CONN
*P din[3] I
*I *1626:A I *D sky130_fd_sc_hd__buf_2
*CAP
1 din[3] 0.000623153
2 *1626:A 0.000623153
*RES
1 din[3] *1626:A 20.5932 
*END

*D_NET *10 0.000641744
*CONN
*P din[4] I
*I *1627:A I *D sky130_fd_sc_hd__clkbuf_2
*CAP
1 din[4] 0.000320872
2 *1627:A 0.000320872
3 *1627:A *333:22 0
*RES
1 din[4] *1627:A 21.2625 
*END

*D_NET *11 0.000528355
*CONN
*P din[5] I
*I *1628:A I *D sky130_fd_sc_hd__clkbuf_2
*CAP
1 din[5] 0.000264177
2 *1628:A 0.000264177
3 *1628:A *431:18 0
*RES
1 din[5] *1628:A 20.0132 
*END

*D_NET *12 0.00130197
*CONN
*P din[6] I
*I *1629:A I *D sky130_fd_sc_hd__clkbuf_2
*CAP
1 din[6] 0.000650985
2 *1629:A 0.000650985
*RES
1 din[6] *1629:A 26.05 
*END

*D_NET *13 0.000943353
*CONN
*P din[7] I
*I *1630:A I *D sky130_fd_sc_hd__clkbuf_2
*CAP
1 din[7] 0.000422504
2 *1630:A 0.000422504
3 *1630:A *1644:A 9.83442e-05
*RES
1 din[7] *1630:A 21.9429 
*END

*D_NET *14 0.000825701
*CONN
*P dout[0] O
*I *1635:X O *D sky130_fd_sc_hd__clkbuf_4
*CAP
1 dout[0] 0.00041285
2 *1635:X 0.00041285
*RES
1 *1635:X dout[0] 22.4405 
*END

*D_NET *15 0.000581097
*CONN
*P dout[1] O
*I *1636:X O *D sky130_fd_sc_hd__buf_2
*CAP
1 dout[1] 0.000255032
2 *1636:X 0.000255032
3 dout[1] *417:8 2.34423e-05
4 dout[1] *431:18 4.75911e-05
*RES
1 *1636:X dout[1] 18.5706 
*END

*D_NET *16 0.00175997
*CONN
*P dout[2] O
*I *1637:X O *D sky130_fd_sc_hd__clkbuf_4
*CAP
1 dout[2] 0.000879987
2 *1637:X 0.000879987
*RES
1 *1637:X dout[2] 29.8179 
*END

*D_NET *17 0.0011015
*CONN
*P dout[3] O
*I *1638:X O *D sky130_fd_sc_hd__clkbuf_4
*CAP
1 dout[3] 0.000511651
2 *1638:X 0.000511651
3 dout[3] *1643:A 7.8195e-05
*RES
1 *1638:X dout[3] 23.2643 
*END

*D_NET *18 0.0010163
*CONN
*P dout[4] O
*I *1639:X O *D sky130_fd_sc_hd__clkbuf_4
*CAP
1 dout[4] 0.000480001
2 *1639:X 0.000480001
3 dout[4] used[3] 0
4 dout[4] *1654:A 5.62995e-05
*RES
1 *1639:X dout[4] 22.8536 
*END

*D_NET *19 0.000634939
*CONN
*P dout[5] O
*I *1640:X O *D sky130_fd_sc_hd__clkbuf_4
*CAP
1 dout[5] 0.000317469
2 *1640:X 0.000317469
*RES
1 *1640:X dout[5] 20.3518 
*END

*D_NET *20 0.000897393
*CONN
*P dout[6] O
*I *1641:X O *D sky130_fd_sc_hd__clkbuf_4
*CAP
1 dout[6] 0.000321617
2 *1641:X 0.000321617
3 dout[6] *1641:A 8.1835e-05
4 dout[6] *423:8 5.58875e-06
5 dout[6] *477:12 0.000166735
*RES
1 *1641:X dout[6] 20.0884 
*END

*D_NET *21 0.000786774
*CONN
*P dout[7] O
*I *1642:X O *D sky130_fd_sc_hd__clkbuf_4
*CAP
1 dout[7] 0.000391973
2 *1642:X 0.000391973
3 dout[7] *1395:A1 2.8266e-06
*RES
1 *1642:X dout[7] 21.6571 
*END

*D_NET *22 0.00147927
*CONN
*P empty O
*I *1643:X O *D sky130_fd_sc_hd__clkbuf_4
*CAP
1 empty 0.000739633
2 *1643:X 0.000739633
*RES
1 *1643:X empty 26.9607 
*END

*D_NET *23 0.00101259
*CONN
*P full O
*I *1644:X O *D sky130_fd_sc_hd__buf_2
*CAP
1 full 0.000506295
2 *1644:X 0.000506295
*RES
1 *1644:X full 22.126 
*END

*D_NET *24 0.000700258
*CONN
*P overrun O
*I *1645:X O *D sky130_fd_sc_hd__clkbuf_4
*CAP
1 overrun 0.000350129
2 *1645:X 0.000350129
*RES
1 *1645:X overrun 20.6929 
*END

*D_NET *25 0.000824946
*CONN
*P rd I
*I *1631:A I *D sky130_fd_sc_hd__buf_2
*CAP
1 rd 0.000412473
2 *1631:A 0.000412473
*RES
1 rd *1631:A 21.8357 
*END

*D_NET *26 0.000826448
*CONN
*P rst I
*I *1622:A I *D sky130_fd_sc_hd__buf_1
*CAP
1 rst 0.000413224
2 *1622:A 0.000413224
*RES
1 rst *1622:A 21.9607 
*END

*D_NET *27 0.000791024
*CONN
*P underrun O
*I *1646:X O *D sky130_fd_sc_hd__buf_2
*CAP
1 underrun 0.00031574
2 *1646:X 0.00031574
3 underrun *1611:A 2.09897e-05
4 underrun *1646:A 8.46642e-05
5 underrun *413:12 5.38886e-05
*RES
1 *1646:X underrun 20.0884 
*END

*D_NET *28 0.00205813
*CONN
*P unused[0] O
*I *1647:X O *D sky130_fd_sc_hd__clkbuf_4
*CAP
1 unused[0] 0.000769652
2 *1647:X 0.000769652
3 unused[0] *1557:A 0.000186669
4 unused[0] *1644:A 0.000332153
*RES
1 *1647:X unused[0] 28.6929 
*END

*D_NET *29 0.000590137
*CONN
*P unused[1] O
*I *1648:X O *D sky130_fd_sc_hd__clkbuf_4
*CAP
1 unused[1] 0.000295069
2 *1648:X 0.000295069
3 unused[1] *430:33 0
*RES
1 *1648:X unused[1] 20.8518 
*END

*D_NET *30 0.000956655
*CONN
*P unused[2] O
*I *1649:X O *D sky130_fd_sc_hd__buf_2
*CAP
1 unused[2] 0.000478328
2 *1649:X 0.000478328
3 *1621:A unused[2] 0
*RES
1 *1649:X unused[2] 22.4449 
*END

*D_NET *31 0.00131394
*CONN
*P unused[3] O
*I *1650:X O *D sky130_fd_sc_hd__clkbuf_4
*CAP
1 unused[3] 0.000563449
2 *1650:X 0.000563449
3 unused[3] *425:67 0.000187041
*RES
1 *1650:X unused[3] 24.3357 
*END

*D_NET *32 0.00232035
*CONN
*P used[0] O
*I *1651:X O *D sky130_fd_sc_hd__clkbuf_4
*CAP
1 used[0] 0.000824912
2 *1651:X 0.000824912
3 used[0] *425:67 0.000670527
*RES
1 *1651:X used[0] 28.1929 
*END

*D_NET *33 0.00127196
*CONN
*P used[1] O
*I *1652:X O *D sky130_fd_sc_hd__clkbuf_4
*CAP
1 used[1] 0.000540929
2 *1652:X 0.000540929
3 used[1] *1395:S 0.000185971
4 used[1] *1397:A0 4.1331e-06
*RES
1 *1652:X used[1] 23.9429 
*END

*D_NET *34 0.000679275
*CONN
*P used[2] O
*I *1653:X O *D sky130_fd_sc_hd__clkbuf_4
*CAP
1 used[2] 0.000339637
2 *1653:X 0.000339637
3 used[2] *1653:A 0
*RES
1 *1653:X used[2] 20.9589 
*END

*D_NET *35 0.00110931
*CONN
*P used[3] O
*I *1654:X O *D sky130_fd_sc_hd__clkbuf_4
*CAP
1 used[3] 0.000554653
2 *1654:X 0.000554653
3 dout[4] used[3] 0
*RES
1 *1654:X used[3] 21.7884 
*END

*D_NET *36 0.000551339
*CONN
*P wr I
*I *1623:A I *D sky130_fd_sc_hd__clkbuf_2
*CAP
1 wr 0.00027567
2 *1623:A 0.00027567
*RES
1 wr *1623:A 20.0132 
*END

*D_NET *37 0.00261695
*CONN
*I *1462:RESET_B I *D sky130_fd_sc_hd__dfrtp_1
*I *1399:C I *D sky130_fd_sc_hd__and4_1
*I *1325:C I *D sky130_fd_sc_hd__and4b_1
*I *1306:Y O *D sky130_fd_sc_hd__inv_2
*CAP
1 *1462:RESET_B 2.44282e-05
2 *1399:C 0.000204678
3 *1325:C 0
4 *1306:Y 9.19558e-05
5 *37:10 0.00042451
6 *37:6 0.000336216
7 *1399:C *1325:D 3.45899e-05
8 *1399:C *1345:A_N 2.40093e-05
9 *1399:C *1399:D 5.49995e-05
10 *1399:C *1647:A 0.000255407
11 *1399:C *255:8 4.2383e-05
12 *1399:C *268:18 0.000179295
13 *1399:C *297:14 3.97677e-05
14 *1399:C *514:59 5.74499e-06
15 *1462:RESET_B *288:36 1.12381e-05
16 *37:6 *1476:RESET_B 0.000185643
17 *37:6 *288:36 9.52501e-05
18 *37:10 *1325:D 0.000124019
19 *37:10 *1647:A 0.000482814
20 *37:10 *426:10 0
21 *37:10 *514:10 0
*RES
1 *1306:Y *37:6 11.8893 
2 *37:6 *37:10 10.6964 
3 *37:10 *1325:C 13.8 
4 *37:10 *1399:C 19.4607 
5 *37:6 *1462:RESET_B 0.473214 
*END

*D_NET *38 0.000369894
*CONN
*I *1463:RESET_B I *D sky130_fd_sc_hd__dfrtp_1
*I *1308:Y O *D sky130_fd_sc_hd__inv_2
*CAP
1 *1463:RESET_B 4.80085e-05
2 *1308:Y 4.80085e-05
3 *1463:RESET_B *1270:B1 9.56747e-05
4 *1463:RESET_B *254:129 0.000178202
*RES
1 *1308:Y *1463:RESET_B 20.55 
*END

*D_NET *39 0.000187838
*CONN
*I *1464:RESET_B I *D sky130_fd_sc_hd__dfrtp_1
*I *1309:Y O *D sky130_fd_sc_hd__inv_2
*CAP
1 *1464:RESET_B 3.82246e-05
2 *1309:Y 3.82246e-05
3 *1464:RESET_B *1268:A 5.56943e-05
4 *1464:RESET_B *431:18 5.56943e-05
*RES
1 *1309:Y *1464:RESET_B 19.6393 
*END

*D_NET *40 0.000370143
*CONN
*I *1465:RESET_B I *D sky130_fd_sc_hd__dfrtp_1
*I *1310:Y O *D sky130_fd_sc_hd__inv_2
*CAP
1 *1465:RESET_B 4.62424e-05
2 *1310:Y 4.62424e-05
3 *1465:RESET_B *254:113 0.000179656
4 *1465:RESET_B *431:18 9.80029e-05
*RES
1 *1310:Y *1465:RESET_B 20.55 
*END

*D_NET *41 0.000461447
*CONN
*I *1466:RESET_B I *D sky130_fd_sc_hd__dfrtp_1
*I *1311:Y O *D sky130_fd_sc_hd__inv_2
*CAP
1 *1466:RESET_B 0.000211462
2 *1311:Y 0.000211462
3 *1466:RESET_B *254:46 0
4 *1466:RESET_B *418:12 3.8524e-05
*RES
1 *1311:Y *1466:RESET_B 21.8446 
*END

*D_NET *42 0.000178122
*CONN
*I *1467:RESET_B I *D sky130_fd_sc_hd__dfrtp_1
*I *1312:Y O *D sky130_fd_sc_hd__inv_2
*CAP
1 *1467:RESET_B 8.67599e-05
2 *1312:Y 8.67599e-05
3 *1467:RESET_B *1240:A1 4.6025e-06
4 *1467:RESET_B *1467:CLK 0
5 *1467:RESET_B *309:89 0
*RES
1 *1312:Y *1467:RESET_B 19.6393 
*END

*D_NET *43 0.000498665
*CONN
*I *1468:RESET_B I *D sky130_fd_sc_hd__dfrtp_1
*I *1313:Y O *D sky130_fd_sc_hd__inv_2
*CAP
1 *1468:RESET_B 0.000189324
2 *1313:Y 0.000189324
3 *1468:RESET_B *1232:A 0.000120017
4 *1468:RESET_B *1492:CLK 0
5 *1468:RESET_B *163:45 0
*RES
1 *1313:Y *1468:RESET_B 21.6036 
*END

*D_NET *44 0.00025348
*CONN
*I *1469:RESET_B I *D sky130_fd_sc_hd__dfrtp_1
*I *1314:Y O *D sky130_fd_sc_hd__inv_2
*CAP
1 *1469:RESET_B 9.27105e-05
2 *1314:Y 9.27105e-05
3 *1469:RESET_B *1223:A 6.80593e-05
4 *1469:RESET_B *254:46 0
*RES
1 *1314:Y *1469:RESET_B 20.55 
*END

*D_NET *45 0.000265681
*CONN
*I *1470:RESET_B I *D sky130_fd_sc_hd__dfrtp_1
*I *1315:Y O *D sky130_fd_sc_hd__inv_2
*CAP
1 *1470:RESET_B 2.9403e-05
2 *1315:Y 2.9403e-05
3 *1470:RESET_B *1213:A0 0.000103437
4 *1470:RESET_B *254:129 0.000103437
*RES
1 *1315:Y *1470:RESET_B 19.6393 
*END

*D_NET *46 0.000714447
*CONN
*I *1471:RESET_B I *D sky130_fd_sc_hd__dfrtp_1
*I *1316:Y O *D sky130_fd_sc_hd__inv_2
*CAP
1 *1471:RESET_B 0.000307984
2 *1316:Y 0.000307984
3 *1471:RESET_B *1610:A 0
4 *1471:RESET_B *1642:A 9.84792e-05
*RES
1 *1316:Y *1471:RESET_B 24.0054 
*END

*D_NET *47 0.000378663
*CONN
*I *1472:RESET_B I *D sky130_fd_sc_hd__dfrtp_1
*I *1317:Y O *D sky130_fd_sc_hd__inv_2
*CAP
1 *1472:RESET_B 5.33501e-05
2 *1317:Y 5.33501e-05
3 *1472:RESET_B *268:18 0.000177227
4 *1472:RESET_B *499:19 9.4736e-05
*RES
1 *1317:Y *1472:RESET_B 20.55 
*END

*D_NET *48 0.00121915
*CONN
*I *1473:RESET_B I *D sky130_fd_sc_hd__dfrtp_1
*I *1318:Y O *D sky130_fd_sc_hd__inv_2
*CAP
1 *1473:RESET_B 0.00026621
2 *1318:Y 0.00026621
3 *1473:RESET_B *1183:A1 0.000290003
4 *1473:RESET_B *329:105 3.25078e-05
5 *1473:RESET_B *512:23 0.000192976
6 *1473:RESET_B *512:44 0.000171241
*RES
1 *1318:Y *1473:RESET_B 24.3357 
*END

*D_NET *49 0.000468712
*CONN
*I *1474:RESET_B I *D sky130_fd_sc_hd__dfrtp_4
*I *1319:Y O *D sky130_fd_sc_hd__inv_2
*CAP
1 *1474:RESET_B 0.00013031
2 *1319:Y 0.00013031
3 *1474:RESET_B *1183:B1_N 0.000177227
4 *1474:RESET_B *238:16 3.08664e-05
*RES
1 *1319:Y *1474:RESET_B 21.0857 
*END

*D_NET *50 0.000534893
*CONN
*I *1475:RESET_B I *D sky130_fd_sc_hd__dfrtp_2
*I *1320:Y O *D sky130_fd_sc_hd__inv_2
*CAP
1 *1475:RESET_B 0.000142526
2 *1320:Y 0.000142526
3 *1475:RESET_B *1317:A 0.000176036
4 *1475:RESET_B *1475:D 4.63699e-05
5 *1475:RESET_B *244:66 2.74352e-05
*RES
1 *1320:Y *1475:RESET_B 21.3446 
*END

*D_NET *51 0.00122174
*CONN
*I *1476:RESET_B I *D sky130_fd_sc_hd__dfrtp_4
*I *1321:Y O *D sky130_fd_sc_hd__inv_2
*CAP
1 *1476:RESET_B 0.00040602
2 *1321:Y 0.00040602
3 *1476:RESET_B *1170:B 5.65955e-05
4 *1476:RESET_B *1272:A1 3.2534e-05
5 *1476:RESET_B *1306:A 2.41665e-05
6 *1476:RESET_B *1647:A 0.000101545
7 *1476:RESET_B *288:36 9.22103e-06
8 *37:6 *1476:RESET_B 0.000185643
*RES
1 *1321:Y *1476:RESET_B 24.3446 
*END

*D_NET *52 0.00066759
*CONN
*I *1477:RESET_B I *D sky130_fd_sc_hd__dfrtp_4
*I *1322:Y O *D sky130_fd_sc_hd__inv_2
*CAP
1 *1477:RESET_B 0.000151133
2 *1322:Y 0.000151133
3 *1477:RESET_B *1167:A 2.64976e-05
4 *1477:RESET_B *1167:B 6.53273e-05
5 *1477:RESET_B *1168:A 4.1331e-06
6 *1477:RESET_B *1168:B 0.000177234
7 *1477:RESET_B *1322:A 2.72375e-05
8 *1477:RESET_B *144:10 6.48957e-05
*RES
1 *1322:Y *1477:RESET_B 22.3357 
*END

*D_NET *53 0.000290228
*CONN
*I *1478:RESET_B I *D sky130_fd_sc_hd__dfrtp_4
*I *1323:Y O *D sky130_fd_sc_hd__inv_2
*CAP
1 *1478:RESET_B 0.000117163
2 *1323:Y 0.000117163
3 *1478:RESET_B *1323:A 0
4 *1478:RESET_B *244:21 0
5 *1478:RESET_B *288:36 5.59013e-05
6 *1478:RESET_B *499:8 0
*RES
1 *1323:Y *1478:RESET_B 20.2464 
*END

*D_NET *54 0.000654562
*CONN
*I *1479:RESET_B I *D sky130_fd_sc_hd__dfrtp_2
*I *1324:Y O *D sky130_fd_sc_hd__inv_2
*CAP
1 *1479:RESET_B 0.000321307
2 *1324:Y 0.000321307
3 *1479:RESET_B *329:24 1.19472e-05
*RES
1 *1324:Y *1479:RESET_B 23.6393 
*END

*D_NET *55 0.00168371
*CONN
*I *1454:D I *D sky130_fd_sc_hd__dfxtp_1
*I *1291:X O *D sky130_fd_sc_hd__clkbuf_1
*CAP
1 *1454:D 0.000309226
2 *1291:X 0.000309226
3 *1454:D *1261:B1 0.000244365
4 *1454:D *1266:A1 0.00022459
5 *1454:D *1329:A1 0.000112215
6 *1454:D *160:150 3.84385e-05
7 *1454:D *309:54 0.000334797
8 *1454:D *335:110 0.000110857
*RES
1 *1291:X *1454:D 35.542 
*END

*D_NET *56 0.000638782
*CONN
*I *1455:D I *D sky130_fd_sc_hd__dfxtp_1
*I *1293:X O *D sky130_fd_sc_hd__clkbuf_1
*CAP
1 *1455:D 0.000194893
2 *1293:X 0.000194893
3 *1455:D *1455:CLK 0.000139913
4 *1455:D *242:12 5.56943e-05
5 *1455:D *438:23 5.33882e-05
*RES
1 *1293:X *1455:D 31.3902 
*END

*D_NET *57 0.00126992
*CONN
*I *1456:D I *D sky130_fd_sc_hd__dfxtp_1
*I *1295:X O *D sky130_fd_sc_hd__clkbuf_1
*CAP
1 *1456:D 0.000291418
2 *1295:X 0.000291418
3 *1456:D *1243:A1 3.06035e-05
4 *1456:D *172:98 0.000328239
5 *1456:D *434:12 0.000328239
*RES
1 *1295:X *1456:D 34.6045 
*END

*D_NET *58 0.000436367
*CONN
*I *1457:D I *D sky130_fd_sc_hd__dfxtp_1
*I *1297:X O *D sky130_fd_sc_hd__clkbuf_1
*CAP
1 *1457:D 0.000111712
2 *1297:X 0.000111712
3 *1457:D *1234:A2 6.14332e-05
4 *1457:D *1297:A 8.91726e-05
5 *1457:D *1457:CLK 5.95099e-05
6 *1457:D *158:83 2.8266e-06
7 *1457:D *158:91 0
*RES
1 *1297:X *1457:D 30.4259 
*END

*D_NET *59 0.000364377
*CONN
*I *1458:D I *D sky130_fd_sc_hd__dfxtp_1
*I *1299:X O *D sky130_fd_sc_hd__clkbuf_1
*CAP
1 *1458:D 7.76269e-05
2 *1299:X 7.76269e-05
3 *1458:D *1458:CLK 0.000103097
4 *1458:D *333:10 5.54817e-06
5 *1458:D *365:16 0.000100478
*RES
1 *1299:X *1458:D 29.5152 
*END

*D_NET *60 0.000610192
*CONN
*I *1459:D I *D sky130_fd_sc_hd__dfxtp_1
*I *1301:X O *D sky130_fd_sc_hd__clkbuf_1
*CAP
1 *1459:D 0.000135742
2 *1301:X 0.000135742
3 *1459:D *1221:A1 9.59189e-06
4 *1459:D *1221:B1 4.87669e-06
5 *1459:D *1465:CLK 1.90223e-05
6 *1459:D *165:90 0.000146991
7 *1459:D *245:102 9.67754e-05
8 *1459:D *335:106 6.14514e-05
*RES
1 *1301:X *1459:D 30.658 
*END

*D_NET *61 0.000404084
*CONN
*I *1460:D I *D sky130_fd_sc_hd__dfxtp_1
*I *1303:X O *D sky130_fd_sc_hd__clkbuf_1
*CAP
1 *1460:D 5.89919e-05
2 *1303:X 5.89919e-05
3 *1460:D *1213:S 0.000127294
4 *1460:D *1303:A 1.32293e-05
5 *1460:D *331:105 1.65914e-05
6 *1460:D *331:114 0.000128986
*RES
1 *1303:X *1460:D 20.658 
*END

*D_NET *62 0.000380696
*CONN
*I *1461:D I *D sky130_fd_sc_hd__dfxtp_1
*I *1305:X O *D sky130_fd_sc_hd__clkbuf_1
*CAP
1 *1461:D 0.000142644
2 *1305:X 0.000142644
3 *1461:D *1305:A 7.89734e-05
4 *1461:D *1461:CLK 0
5 *1461:D *413:30 1.64343e-05
*RES
1 *1305:X *1461:D 30.2473 
*END

*D_NET *63 0.00188669
*CONN
*I *1462:D I *D sky130_fd_sc_hd__dfrtp_1
*I *1272:X O *D sky130_fd_sc_hd__a21o_1
*CAP
1 *1462:D 0.000598493
2 *1272:X 0.000598493
3 *1462:D *1398:A 0
4 *1462:D *1557:A 1.00073e-05
5 *1462:D *1645:A 1.40306e-05
6 *1462:D *1647:A 0.000665667
7 *1462:D *426:10 0
*RES
1 *1272:X *1462:D 36.35 
*END

*D_NET *64 0.000708995
*CONN
*I *1463:D I *D sky130_fd_sc_hd__dfrtp_1
*I *1270:X O *D sky130_fd_sc_hd__a21o_1
*CAP
1 *1463:D 0.000275182
2 *1270:X 0.000275182
3 *1463:D *1208:A 3.67252e-05
4 *1463:D *1209:A2 3.83493e-06
5 *1463:D *1518:CLK 1.21398e-05
6 *1463:D *160:113 7.74068e-05
7 *1463:D *299:135 2.85234e-05
*RES
1 *1270:X *1463:D 31.6536 
*END

*D_NET *65 0.00100078
*CONN
*I *1464:D I *D sky130_fd_sc_hd__dfrtp_1
*I *1268:X O *D sky130_fd_sc_hd__clkbuf_1
*CAP
1 *1464:D 0.000378884
2 *1268:X 0.000378884
3 *1464:D *1268:A 0.000167285
4 *1464:D *1402:A0 7.57312e-05
*RES
1 *1268:X *1464:D 34.6714 
*END

*D_NET *66 0.000371926
*CONN
*I *1465:D I *D sky130_fd_sc_hd__dfrtp_1
*I *1259:X O *D sky130_fd_sc_hd__clkbuf_1
*CAP
1 *1465:D 9.06833e-05
2 *1259:X 9.06833e-05
3 *1465:D *1216:B1 3.3304e-05
4 *1465:D *1258:A1 8.99782e-05
5 *1465:D *1300:A1 1.21258e-05
6 *1465:D *1465:CLK 2.84026e-05
7 *1465:D *466:18 2.67489e-05
*RES
1 *1259:X *1465:D 20.7964 
*END

*D_NET *67 0.000309049
*CONN
*I *1466:D I *D sky130_fd_sc_hd__dfrtp_1
*I *1250:X O *D sky130_fd_sc_hd__clkbuf_1
*CAP
1 *1466:D 0.000120779
2 *1250:X 0.000120779
3 *1466:D *430:33 6.74911e-05
*RES
1 *1250:X *1466:D 29.7786 
*END

*D_NET *68 0.000329856
*CONN
*I *1467:D I *D sky130_fd_sc_hd__dfrtp_1
*I *1241:X O *D sky130_fd_sc_hd__clkbuf_1
*CAP
1 *1467:D 0.000114616
2 *1241:X 0.000114616
3 *1467:D *1423:A 0
4 *1467:D *309:95 0.000100625
*RES
1 *1241:X *1467:D 20.7964 
*END

*D_NET *69 0.000518413
*CONN
*I *1468:D I *D sky130_fd_sc_hd__dfrtp_1
*I *1232:X O *D sky130_fd_sc_hd__clkbuf_1
*CAP
1 *1468:D 0.000175723
2 *1232:X 0.000175723
3 *1468:D *1640:A 3.88139e-05
4 *1468:D *430:33 0.000128154
*RES
1 *1232:X *1468:D 30.6 
*END

*D_NET *70 0.000330026
*CONN
*I *1469:D I *D sky130_fd_sc_hd__dfrtp_1
*I *1223:X O *D sky130_fd_sc_hd__clkbuf_1
*CAP
1 *1469:D 0.000100933
2 *1223:X 0.000100933
3 *1469:D *430:33 0.000128161
*RES
1 *1223:X *1469:D 29.7786 
*END

*D_NET *71 0.000477194
*CONN
*I *1470:D I *D sky130_fd_sc_hd__dfrtp_1
*I *1214:X O *D sky130_fd_sc_hd__clkbuf_1
*CAP
1 *1470:D 0.000110709
2 *1214:X 0.000110709
3 *1470:D *1213:S 6.95409e-05
4 *1470:D *331:133 2.84109e-05
5 *1470:D *413:30 5.6647e-05
6 *1470:D *488:16 0.000101178
*RES
1 *1214:X *1470:D 30.0107 
*END

*D_NET *72 0.00039267
*CONN
*I *1471:D I *D sky130_fd_sc_hd__dfrtp_1
*I *1205:X O *D sky130_fd_sc_hd__clkbuf_1
*CAP
1 *1471:D 9.31349e-05
2 *1205:X 9.31349e-05
3 *1471:D *1206:A1 6.74815e-05
4 *1471:D *331:38 0.000128146
5 *1471:D *413:30 1.07719e-05
*RES
1 *1205:X *1471:D 29.7786 
*END

*D_NET *73 0.000304316
*CONN
*I *1472:D I *D sky130_fd_sc_hd__dfrtp_1
*I *1187:X O *D sky130_fd_sc_hd__xor2_1
*CAP
1 *1472:D 5.09845e-05
2 *1187:X 5.09845e-05
3 *1472:D *1187:B 0.000102362
4 *1472:D *159:14 9.99853e-05
*RES
1 *1187:X *1472:D 20.3679 
*END

*D_NET *74 0.00103408
*CONN
*I *1473:D I *D sky130_fd_sc_hd__dfrtp_1
*I *1185:X O *D sky130_fd_sc_hd__o21ba_1
*CAP
1 *1473:D 0.000304757
2 *1185:X 0.000304757
3 *1473:D *1178:B 7.74068e-05
4 *1473:D *1182:A2 0
5 *1473:D *1186:B1 7.74068e-05
6 *1473:D *1473:CLK 9.21611e-05
7 *1473:D *152:95 0.000177591
*RES
1 *1185:X *1473:D 32.6 
*END

*D_NET *75 0.000652195
*CONN
*I *1474:D I *D sky130_fd_sc_hd__dfrtp_4
*I *1183:X O *D sky130_fd_sc_hd__o21ba_1
*CAP
1 *1474:D 0.000259853
2 *1183:X 0.000259853
3 *1474:D *1276:A 3.25224e-05
4 *1474:D *418:18 9.99668e-05
*RES
1 *1183:X *1474:D 31.1179 
*END

*D_NET *76 0.00108949
*CONN
*I *1475:D I *D sky130_fd_sc_hd__dfrtp_2
*I *1180:X O *D sky130_fd_sc_hd__xor2_1
*CAP
1 *1475:D 0.000332361
2 *1180:X 0.000332361
3 *1475:D *1317:A 5.49489e-05
4 *1475:D *159:14 0.000183922
5 *1475:D *329:18 0.000139523
6 *1475:RESET_B *1475:D 4.63699e-05
*RES
1 *1180:X *1475:D 33.6714 
*END

*D_NET *77 0.00115514
*CONN
*I *1476:D I *D sky130_fd_sc_hd__dfrtp_4
*I *1170:Y O *D sky130_fd_sc_hd__nor2_1
*CAP
1 *1476:D 0.000451556
2 *1170:Y 0.000451556
3 *1476:D *1170:A 8.72828e-05
4 *1476:D *1321:A 1.59373e-05
5 *1476:D *1476:CLK 2.90548e-05
6 *1476:D *515:14 0.000119754
*RES
1 *1170:Y *1476:D 33.8321 
*END

*D_NET *78 0.000300977
*CONN
*I *1477:D I *D sky130_fd_sc_hd__dfrtp_4
*I *1168:Y O *D sky130_fd_sc_hd__nor2_1
*CAP
1 *1477:D 0.000105648
2 *1168:Y 0.000105648
3 *1477:D *1168:A 8.96812e-05
4 *1477:D *244:21 0
*RES
1 *1168:Y *1477:D 29.475 
*END

*D_NET *79 0.000380635
*CONN
*I *1478:D I *D sky130_fd_sc_hd__dfrtp_4
*I *1164:X O *D sky130_fd_sc_hd__clkbuf_1
*CAP
1 *1478:D 0.000140542
2 *1164:X 0.000140542
3 *1478:D *1161:B 1.40415e-05
4 *1478:D *1478:CLK 5.52238e-05
5 *1478:D *499:8 3.0285e-05
*RES
1 *1164:X *1478:D 30.0107 
*END

*D_NET *80 0.00115429
*CONN
*I *1479:D I *D sky130_fd_sc_hd__dfrtp_2
*I *1161:Y O *D sky130_fd_sc_hd__xnor2_1
*CAP
1 *1479:D 0.000511767
2 *1161:Y 0.000511767
3 *1479:D *418:18 6.65302e-05
4 *1479:D *444:10 6.42242e-05
*RES
1 *1161:Y *1479:D 34.2964 
*END

*D_NET *81 0.000619648
*CONN
*I *1480:D I *D sky130_fd_sc_hd__dfxtp_1
*I *1330:X O *D sky130_fd_sc_hd__clkbuf_1
*CAP
1 *1480:D 0.000251282
2 *1330:X 0.000251282
3 *1480:D *1258:S 4.43184e-05
4 *1480:D *1329:S 3.88609e-05
5 *1480:D *1330:A 3.39053e-05
*RES
1 *1330:X *1480:D 31.4795 
*END

*D_NET *82 0.00107385
*CONN
*I *1481:D I *D sky130_fd_sc_hd__dfxtp_1
*I *1332:X O *D sky130_fd_sc_hd__clkbuf_1
*CAP
1 *1481:D 0.00014417
2 *1332:X 0.00014417
3 *1481:D *1230:A2 9.77627e-05
4 *1481:D *1298:A1 2.51343e-06
5 *1481:D *1332:A 0.000291941
6 *1481:D *165:171 0.000195263
7 *1481:D *288:100 9.98664e-05
8 *1481:D *333:98 9.81617e-05
*RES
1 *1332:X *1481:D 32.4973 
*END

*D_NET *83 0.00236545
*CONN
*I *1482:D I *D sky130_fd_sc_hd__dfxtp_1
*I *1334:X O *D sky130_fd_sc_hd__clkbuf_1
*CAP
1 *1482:D 0.000322825
2 *1334:X 0.000322825
3 *1482:D *1334:A 0.00048746
4 *1482:D *1406:A1 0.00025266
5 *1482:D *1545:A 0.000348207
6 *1482:D *336:34 2.76645e-05
7 *1482:D *336:40 0.000127114
8 *1482:D *433:50 0.000476696
*RES
1 *1334:X *1482:D 28.8723 
*END

*D_NET *84 0.00130133
*CONN
*I *1483:D I *D sky130_fd_sc_hd__dfxtp_1
*I *1336:X O *D sky130_fd_sc_hd__clkbuf_1
*CAP
1 *1483:D 0.000529782
2 *1336:X 0.000529782
3 *1483:D *1234:B1 0
4 *1483:D *1283:C 9.33978e-07
5 *1483:D *1409:A 5.45307e-05
6 *1483:D *1483:CLK 3.4846e-06
7 *1483:D *1515:D 0.000177941
8 *1483:D *165:171 0
9 *1483:D *425:22 4.87669e-06
*RES
1 *1336:X *1483:D 35.9259 
*END

*D_NET *85 0.000562242
*CONN
*I *1484:D I *D sky130_fd_sc_hd__dfxtp_1
*I *1338:X O *D sky130_fd_sc_hd__clkbuf_1
*CAP
1 *1484:D 0.000159932
2 *1338:X 0.000159932
3 *1484:D *1230:B2 0.000102545
4 *1484:D *1543:A 4.78056e-05
5 *1484:D *254:82 7.02611e-05
6 *1484:D *438:75 5.33091e-06
7 *1484:D *455:48 1.64343e-05
*RES
1 *1338:X *1484:D 30.4616 
*END

*D_NET *86 0.000353825
*CONN
*I *1485:D I *D sky130_fd_sc_hd__dfxtp_1
*I *1340:X O *D sky130_fd_sc_hd__clkbuf_1
*CAP
1 *1485:D 0.000124877
2 *1340:X 0.000124877
3 *1485:D *1258:S 8.25843e-06
4 *1485:D *1340:A 9.58126e-05
*RES
1 *1340:X *1485:D 20.658 
*END

*D_NET *87 0.000328587
*CONN
*I *1486:D I *D sky130_fd_sc_hd__dfxtp_1
*I *1342:X O *D sky130_fd_sc_hd__clkbuf_1
*CAP
1 *1486:D 0.000129512
2 *1342:X 0.000129512
3 *1486:D *1342:A 1.46148e-05
4 *1486:D *1486:CLK 5.49489e-05
5 *1486:D *1584:A 0
*RES
1 *1342:X *1486:D 20.658 
*END

*D_NET *88 0.000762468
*CONN
*I *1487:D I *D sky130_fd_sc_hd__dfxtp_1
*I *1344:X O *D sky130_fd_sc_hd__clkbuf_1
*CAP
1 *1487:D 9.50961e-05
2 *1344:X 9.50961e-05
3 *1487:D *1204:A1 0.000100831
4 *1487:D *1207:A2 0.000234761
5 *1487:D *488:51 0.000236685
*RES
1 *1344:X *1487:D 31.158 
*END

*D_NET *89 0.000440725
*CONN
*I *1488:D I *D sky130_fd_sc_hd__dfxtp_1
*I *1348:X O *D sky130_fd_sc_hd__clkbuf_1
*CAP
1 *1488:D 0.000179178
2 *1348:X 0.000179178
3 *1488:D *1351:S 4.87669e-06
4 *1488:D *1488:CLK 4.46186e-06
5 *1488:D *167:84 5.65955e-05
6 *1488:D *319:78 0
7 *1488:D *339:14 1.64343e-05
*RES
1 *1348:X *1488:D 30.2473 
*END

*D_NET *90 0.000371555
*CONN
*I *1489:D I *D sky130_fd_sc_hd__dfxtp_1
*I *1350:X O *D sky130_fd_sc_hd__clkbuf_1
*CAP
1 *1489:D 0.000142415
2 *1350:X 0.000142415
3 *1489:D *163:24 0
4 *1489:D *333:39 3.18676e-05
5 *1489:D *430:33 5.48581e-05
*RES
1 *1350:X *1489:D 30.2473 
*END

*D_NET *91 0.000561653
*CONN
*I *1490:D I *D sky130_fd_sc_hd__dfxtp_1
*I *1352:X O *D sky130_fd_sc_hd__clkbuf_1
*CAP
1 *1490:D 8.25948e-05
2 *1352:X 8.25948e-05
3 *1490:D *1352:A 5.50964e-05
4 *1490:D *1490:CLK 0.000128093
5 *1490:D *158:135 0.000213275
*RES
1 *1352:X *1490:D 21.6759 
*END

*D_NET *92 0.000252842
*CONN
*I *1491:D I *D sky130_fd_sc_hd__dfxtp_1
*I *1354:X O *D sky130_fd_sc_hd__clkbuf_1
*CAP
1 *1491:D 0.000103467
2 *1354:X 0.000103467
3 *1491:D *1283:B 1.41302e-05
4 *1491:D *418:18 3.17784e-05
*RES
1 *1354:X *1491:D 29.5152 
*END

*D_NET *93 0.000858349
*CONN
*I *1492:D I *D sky130_fd_sc_hd__dfxtp_1
*I *1356:X O *D sky130_fd_sc_hd__clkbuf_1
*CAP
1 *1492:D 0.000264747
2 *1356:X 0.000264747
3 *1492:D *1314:A 4.87669e-06
4 *1492:D *1355:A0 3.92854e-05
5 *1492:D *1615:A 1.02504e-05
6 *1492:D *1640:A 0.000153047
7 *1492:D *163:45 0
8 *1492:D *421:10 9.90367e-05
9 *1492:D *455:25 2.23592e-05
*RES
1 *1356:X *1492:D 32.3009 
*END

*D_NET *94 0.000319552
*CONN
*I *1493:D I *D sky130_fd_sc_hd__dfxtp_1
*I *1358:X O *D sky130_fd_sc_hd__clkbuf_1
*CAP
1 *1493:D 0.000100266
2 *1358:X 0.000100266
3 *1493:D *172:98 0
4 *1493:D *328:20 5.95099e-05
5 *1493:D *335:16 5.95099e-05
*RES
1 *1358:X *1493:D 29.5152 
*END

*D_NET *95 0.000653839
*CONN
*I *1494:D I *D sky130_fd_sc_hd__dfxtp_1
*I *1360:X O *D sky130_fd_sc_hd__clkbuf_1
*CAP
1 *1494:D 0.000120012
2 *1360:X 0.000120012
3 *1494:D *1193:A1 0.000148514
4 *1494:D *268:67 4.4116e-05
5 *1494:D *268:75 8.02652e-05
6 *1494:D *331:34 0.000140921
*RES
1 *1360:X *1494:D 30.9438 
*END

*D_NET *96 0.000414452
*CONN
*I *1495:D I *D sky130_fd_sc_hd__dfxtp_1
*I *1362:X O *D sky130_fd_sc_hd__clkbuf_1
*CAP
1 *1495:D 7.47799e-05
2 *1362:X 7.47799e-05
3 *1495:D *1362:A 3.24049e-05
4 *1495:D *1495:CLK 0.000124795
5 *1495:D *268:67 0.000107692
*RES
1 *1362:X *1495:D 21.6714 
*END

*D_NET *97 0.00234813
*CONN
*I *1496:D I *D sky130_fd_sc_hd__dfxtp_1
*I *1366:X O *D sky130_fd_sc_hd__clkbuf_1
*CAP
1 *1496:D 0.000627112
2 *1366:X 0.000627112
3 *1496:D *1366:A 2.85321e-05
4 *1496:D *1438:S 0.000399238
5 *1496:D *1439:A 0.000143633
6 *1496:D *1575:A 0.000210696
7 *1496:D *1638:A 0.000174544
8 *1496:D *319:84 7.89362e-05
9 *1496:D *319:104 5.50052e-05
10 *1496:D *336:87 3.32132e-06
*RES
1 *1366:X *1496:D 40.4259 
*END

*D_NET *98 0.000623603
*CONN
*I *1497:D I *D sky130_fd_sc_hd__dfxtp_1
*I *1368:X O *D sky130_fd_sc_hd__clkbuf_1
*CAP
1 *1497:D 0.000233513
2 *1368:X 0.000233513
3 *1497:D *1228:A2 3.09048e-05
4 *1497:D *1228:B1 8.89464e-05
5 *1497:D *1368:A 3.67252e-05
*RES
1 *1368:X *1497:D 31.35 
*END

*D_NET *99 0.000593598
*CONN
*I *1498:D I *D sky130_fd_sc_hd__dfxtp_1
*I *1370:X O *D sky130_fd_sc_hd__clkbuf_1
*CAP
1 *1498:D 0.000208593
2 *1370:X 0.000208593
3 *1498:D *1255:B2 6.87582e-05
4 *1498:D *1442:A1 1.64343e-05
5 *1498:D *1498:CLK 1.64343e-05
6 *1498:D *175:86 7.47852e-05
*RES
1 *1370:X *1498:D 31.533 
*END

*D_NET *100 0.000358744
*CONN
*I *1499:D I *D sky130_fd_sc_hd__dfxtp_1
*I *1372:X O *D sky130_fd_sc_hd__clkbuf_1
*CAP
1 *1499:D 9.31451e-05
2 *1372:X 9.31451e-05
3 *1499:D *1372:A 0.000172454
*RES
1 *1372:X *1499:D 20.658 
*END

*D_NET *101 0.000774143
*CONN
*I *1500:D I *D sky130_fd_sc_hd__dfxtp_1
*I *1374:X O *D sky130_fd_sc_hd__clkbuf_1
*CAP
1 *1500:D 0.000208497
2 *1374:X 0.000208497
3 *1500:D *1446:A0 0.000171342
4 *1500:D *142:132 0.000128509
5 *1500:D *334:104 5.7298e-05
6 *1500:D *422:14 0
*RES
1 *1374:X *1500:D 32.8545 
*END

*D_NET *102 0.000502655
*CONN
*I *1501:D I *D sky130_fd_sc_hd__dfxtp_1
*I *1376:X O *D sky130_fd_sc_hd__clkbuf_1
*CAP
1 *1501:D 0.000120725
2 *1376:X 0.000120725
3 *1501:D *1448:A0 0
4 *1501:D *165:82 2.53061e-05
5 *1501:D *268:86 0.000150618
6 *1501:D *332:46 8.52807e-05
*RES
1 *1376:X *1501:D 30.4036 
*END

*D_NET *103 0.000625713
*CONN
*I *1502:D I *D sky130_fd_sc_hd__dfxtp_1
*I *1378:X O *D sky130_fd_sc_hd__clkbuf_1
*CAP
1 *1502:D 0.000122677
2 *1378:X 0.000122677
3 *1502:D *1502:CLK 0.000140979
4 *1502:D *319:38 0.00011969
5 *1502:D *332:10 8.6229e-06
6 *1502:D *332:29 0.000111067
*RES
1 *1378:X *1502:D 30.6402 
*END

*D_NET *104 0.000293744
*CONN
*I *1503:D I *D sky130_fd_sc_hd__dfxtp_1
*I *1380:X O *D sky130_fd_sc_hd__clkbuf_1
*CAP
1 *1503:D 9.98885e-05
2 *1380:X 9.98885e-05
3 *1503:D *1540:A 3.47737e-05
4 *1503:D *163:203 5.91935e-05
*RES
1 *1380:X *1503:D 29.5152 
*END

*D_NET *105 0.00229521
*CONN
*I *1504:D I *D sky130_fd_sc_hd__dfxtp_1
*I *1384:X O *D sky130_fd_sc_hd__clkbuf_1
*CAP
1 *1504:D 0.000732038
2 *1384:X 0.000732038
3 *1504:D *1348:A 2.44495e-05
4 *1504:D *1383:A1 0.0001222
5 *1504:D *1383:S 4.09998e-05
6 *1504:D *176:77 0
7 *1504:D *345:12 0.000568326
8 *1504:D *438:96 7.51573e-05
*RES
1 *1384:X *1504:D 40.7295 
*END

*D_NET *106 0.000611892
*CONN
*I *1505:D I *D sky130_fd_sc_hd__dfxtp_1
*I *1386:X O *D sky130_fd_sc_hd__clkbuf_1
*CAP
1 *1505:D 0.000222213
2 *1386:X 0.000222213
3 *1505:D *1386:A 0
4 *1505:D *1455:CLK 0.000129031
5 *1505:D *268:37 3.84349e-05
*RES
1 *1386:X *1505:D 31.2295 
*END

*D_NET *107 0.000278048
*CONN
*I *1506:D I *D sky130_fd_sc_hd__dfxtp_1
*I *1388:X O *D sky130_fd_sc_hd__clkbuf_1
*CAP
1 *1506:D 8.63229e-05
2 *1388:X 8.63229e-05
3 *1506:D *1230:A2 4.40806e-05
4 *1506:D *219:12 4.68532e-05
5 *1506:D *245:85 4.87669e-06
6 *1506:D *288:100 9.59189e-06
*RES
1 *1388:X *1506:D 29.7116 
*END

*D_NET *108 0.000675608
*CONN
*I *1507:D I *D sky130_fd_sc_hd__dfxtp_1
*I *1390:X O *D sky130_fd_sc_hd__clkbuf_1
*CAP
1 *1507:D 0.000241501
2 *1390:X 0.000241501
3 *1507:D *1233:B2 0.000129031
4 *1507:D *1249:A1 1.2081e-05
5 *1507:D *268:37 5.14943e-05
6 *1507:D *444:31 0
*RES
1 *1390:X *1507:D 31.5152 
*END

*D_NET *109 0.000625006
*CONN
*I *1508:D I *D sky130_fd_sc_hd__dfxtp_1
*I *1392:X O *D sky130_fd_sc_hd__clkbuf_1
*CAP
1 *1508:D 0.000132337
2 *1392:X 0.000132337
3 *1508:D *163:45 0.000122933
4 *1508:D *203:12 0.000135197
5 *1508:D *333:16 8.63855e-05
6 *1508:D *455:25 1.58163e-05
*RES
1 *1392:X *1508:D 30.6357 
*END

*D_NET *110 0.00183948
*CONN
*I *1509:D I *D sky130_fd_sc_hd__dfxtp_1
*I *1394:X O *D sky130_fd_sc_hd__clkbuf_1
*CAP
1 *1509:D 0.000479351
2 *1394:X 0.000479351
3 *1509:D *1215:B2 6.8526e-05
4 *1509:D *1394:A 0.00012401
5 *1509:D *227:8 0.000441258
6 *1509:D *319:78 6.42145e-05
7 *1509:D *335:16 0.000136951
8 *1509:D *350:6 4.58194e-05
*RES
1 *1394:X *1509:D 36.5286 
*END

*D_NET *111 0.000314733
*CONN
*I *1510:D I *D sky130_fd_sc_hd__dfxtp_1
*I *1396:X O *D sky130_fd_sc_hd__clkbuf_1
*CAP
1 *1510:D 9.71997e-05
2 *1396:X 9.71997e-05
3 *1510:D *1652:A 0
4 *1510:D *331:46 1.64343e-05
5 *1510:D *435:52 0.000103899
*RES
1 *1396:X *1510:D 29.7116 
*END

*D_NET *112 0.000451872
*CONN
*I *1511:D I *D sky130_fd_sc_hd__dfxtp_1
*I *1398:X O *D sky130_fd_sc_hd__clkbuf_1
*CAP
1 *1511:D 7.14045e-05
2 *1398:X 7.14045e-05
3 *1511:D *1462:CLK 2.44318e-05
4 *1511:D *1511:CLK 6.62469e-05
5 *1511:D *288:36 0.000111811
6 *1511:D *331:48 0.000106573
*RES
1 *1398:X *1511:D 21.6714 
*END

*D_NET *113 0.000414006
*CONN
*I *1512:D I *D sky130_fd_sc_hd__dfxtp_1
*I *1403:X O *D sky130_fd_sc_hd__clkbuf_1
*CAP
1 *1512:D 0.000143748
2 *1403:X 0.000143748
3 *1512:D *1262:A 0.000126511
4 *1512:D *1576:A 0
*RES
1 *1403:X *1512:D 21.0688 
*END

*D_NET *114 0.000268857
*CONN
*I *1513:D I *D sky130_fd_sc_hd__dfxtp_1
*I *1405:X O *D sky130_fd_sc_hd__clkbuf_1
*CAP
1 *1513:D 0.000113633
2 *1405:X 0.000113633
3 *1513:D *1405:A 4.15914e-05
*RES
1 *1405:X *1513:D 29.6402 
*END

*D_NET *115 0.00113739
*CONN
*I *1514:D I *D sky130_fd_sc_hd__dfxtp_1
*I *1407:X O *D sky130_fd_sc_hd__clkbuf_1
*CAP
1 *1514:D 0.000328754
2 *1407:X 0.000328754
3 *1514:D *1247:C1 0
4 *1514:D *1424:A0 0.000225342
5 *1514:D *1522:D 6.34974e-05
6 *1514:D *1638:A 5.7298e-05
7 *1514:D *175:78 3.23672e-05
8 *1514:D *336:55 0.00010138
*RES
1 *1407:X *1514:D 33.8009 
*END

*D_NET *116 0.00049189
*CONN
*I *1515:D I *D sky130_fd_sc_hd__dfxtp_1
*I *1409:X O *D sky130_fd_sc_hd__clkbuf_1
*CAP
1 *1515:D 0.000116134
2 *1409:X 0.000116134
3 *1515:D *165:171 0
4 *1515:D *330:50 8.16801e-05
5 *1483:D *1515:D 0.000177941
*RES
1 *1409:X *1515:D 30.4259 
*END

*D_NET *117 0.000258491
*CONN
*I *1516:D I *D sky130_fd_sc_hd__dfxtp_1
*I *1411:X O *D sky130_fd_sc_hd__clkbuf_1
*CAP
1 *1516:D 0.000121582
2 *1411:X 0.000121582
3 *1516:D *1284:A 0
4 *1516:D *334:32 1.53273e-05
*RES
1 *1411:X *1516:D 29.5152 
*END

*D_NET *118 0.000650906
*CONN
*I *1517:D I *D sky130_fd_sc_hd__dfxtp_1
*I *1413:X O *D sky130_fd_sc_hd__clkbuf_1
*CAP
1 *1517:D 0.000219105
2 *1413:X 0.000219105
3 *1517:D *1218:A2 5.60201e-05
4 *1517:D *1412:A0 6.05161e-06
5 *1517:D *1413:A 0.000150625
6 *1517:D *254:123 0
*RES
1 *1413:X *1517:D 31.7652 
*END

*D_NET *119 0.000754469
*CONN
*I *1518:D I *D sky130_fd_sc_hd__dfxtp_1
*I *1415:X O *D sky130_fd_sc_hd__clkbuf_1
*CAP
1 *1518:D 0.0003179
2 *1415:X 0.0003179
3 *1518:D *1270:A1 3.9733e-05
4 *1518:D *413:12 7.89362e-05
*RES
1 *1415:X *1518:D 33.1223 
*END

*D_NET *120 0.000278966
*CONN
*I *1519:D I *D sky130_fd_sc_hd__dfxtp_1
*I *1417:X O *D sky130_fd_sc_hd__clkbuf_1
*CAP
1 *1519:D 0.000133264
2 *1417:X 0.000133264
3 *1519:D *1417:A 1.24368e-05
*RES
1 *1417:X *1519:D 20.658 
*END

*D_NET *121 0.000360554
*CONN
*I *1520:D I *D sky130_fd_sc_hd__dfxtp_1
*I *1421:X O *D sky130_fd_sc_hd__clkbuf_1
*CAP
1 *1520:D 5.75909e-05
2 *1421:X 5.75909e-05
3 *1520:D *1421:A 7.83366e-05
4 *1520:D *160:154 9.82585e-06
5 *1520:D *175:74 0.000152333
6 *1520:D *336:144 4.87669e-06
*RES
1 *1421:X *1520:D 29.7116 
*END

*D_NET *122 0.000344063
*CONN
*I *1521:D I *D sky130_fd_sc_hd__dfxtp_1
*I *1423:X O *D sky130_fd_sc_hd__clkbuf_1
*CAP
1 *1521:D 9.94167e-05
2 *1423:X 9.94167e-05
3 *1521:D *1241:A 8.00806e-05
4 *1521:D *1257:B2 3.48235e-05
5 *1521:D *254:82 1.89513e-05
6 *1521:D *299:46 1.13746e-05
*RES
1 *1423:X *1521:D 29.8143 
*END

*D_NET *123 0.00101106
*CONN
*I *1522:D I *D sky130_fd_sc_hd__dfxtp_1
*I *1425:X O *D sky130_fd_sc_hd__clkbuf_1
*CAP
1 *1522:D 0.000316569
2 *1425:X 0.000316569
3 *1522:D *1247:C1 0
4 *1522:D *1265:A2 6.11788e-06
5 *1522:D *1425:A 0
6 *1522:D *1582:A 7.99677e-06
7 *1522:D *299:80 0.000107337
8 *1522:D *336:55 0.000192976
9 *1514:D *1522:D 6.34974e-05
*RES
1 *1425:X *1522:D 33.7473 
*END

*D_NET *124 0.00114512
*CONN
*I *1523:D I *D sky130_fd_sc_hd__dfxtp_1
*I *1427:X O *D sky130_fd_sc_hd__clkbuf_1
*CAP
1 *1523:D 0.000245594
2 *1427:X 0.000245594
3 *1523:D *258:40 0.000187999
4 *1523:D *278:61 0.00034251
5 *1523:D *309:23 0.000123428
*RES
1 *1427:X *1523:D 34.6045 
*END

*D_NET *125 0.000469503
*CONN
*I *1524:D I *D sky130_fd_sc_hd__dfxtp_1
*I *1429:X O *D sky130_fd_sc_hd__clkbuf_1
*CAP
1 *1524:D 8.1017e-05
2 *1429:X 8.1017e-05
3 *1524:D *1227:A2 0.000103323
4 *1524:D *1254:A2 0.000103323
5 *1524:D *142:132 0.000100823
6 *1524:D *334:21 0
*RES
1 *1429:X *1524:D 29.9259 
*END

*D_NET *126 0.000386211
*CONN
*I *1525:D I *D sky130_fd_sc_hd__dfxtp_1
*I *1431:X O *D sky130_fd_sc_hd__clkbuf_1
*CAP
1 *1525:D 0.000131492
2 *1431:X 0.000131492
3 *1525:D *1431:A 8.91726e-05
4 *1525:D *160:97 1.76204e-05
5 *1525:D *175:74 0
6 *1525:D *332:78 1.64343e-05
*RES
1 *1431:X *1525:D 30.0152 
*END

*D_NET *127 0.000372614
*CONN
*I *1526:D I *D sky130_fd_sc_hd__dfxtp_1
*I *1433:X O *D sky130_fd_sc_hd__clkbuf_1
*CAP
1 *1526:D 0.000170724
2 *1433:X 0.000170724
3 *1526:D *1211:C1 3.11667e-05
4 *1526:D *1375:S 0
5 *1526:D *309:56 0
*RES
1 *1433:X *1526:D 30.4036 
*END

*D_NET *128 0.000531167
*CONN
*I *1527:D I *D sky130_fd_sc_hd__dfxtp_1
*I *1435:X O *D sky130_fd_sc_hd__clkbuf_1
*CAP
1 *1527:D 0.000241481
2 *1435:X 0.000241481
3 *1527:D *1201:A1 0
4 *1527:D *1434:S 0
5 *1527:D *1435:A 4.82048e-05
*RES
1 *1435:X *1527:D 31.35 
*END

*D_NET *129 0.000439869
*CONN
*I *1528:D I *D sky130_fd_sc_hd__dfxtp_1
*I *1439:X O *D sky130_fd_sc_hd__clkbuf_1
*CAP
1 *1528:D 0.000171289
2 *1439:X 0.000171289
3 *1528:D *1365:S 4.83987e-05
4 *1528:D *319:104 4.8892e-05
*RES
1 *1439:X *1528:D 30.9438 
*END

*D_NET *130 0.000261666
*CONN
*I *1529:D I *D sky130_fd_sc_hd__dfxtp_1
*I *1441:X O *D sky130_fd_sc_hd__clkbuf_1
*CAP
1 *1529:D 0.000110622
2 *1441:X 0.000110622
3 *1529:D *1374:A 0
4 *1529:D *1529:CLK 4.04221e-05
*RES
1 *1441:X *1529:D 29.7116 
*END

*D_NET *131 0.00037562
*CONN
*I *1530:D I *D sky130_fd_sc_hd__dfxtp_1
*I *1443:X O *D sky130_fd_sc_hd__clkbuf_1
*CAP
1 *1530:D 0.000114069
2 *1443:X 0.000114069
3 *1530:D *1246:B2 2.13202e-05
4 *1530:D *1255:B2 5.96223e-05
5 *1530:D *1443:A 6.65398e-05
*RES
1 *1443:X *1530:D 29.9929 
*END

*D_NET *132 0.000510434
*CONN
*I *1531:D I *D sky130_fd_sc_hd__dfxtp_1
*I *1445:X O *D sky130_fd_sc_hd__clkbuf_1
*CAP
1 *1531:D 0.00014955
2 *1445:X 0.00014955
3 *1531:D *1445:A 8.83386e-05
4 *1531:D *1531:CLK 5.14718e-05
5 *1531:D *172:24 5.66971e-05
6 *1531:D *175:14 1.48266e-05
*RES
1 *1445:X *1531:D 30.9795 
*END

*D_NET *133 0.000910879
*CONN
*I *1532:D I *D sky130_fd_sc_hd__dfxtp_1
*I *1447:X O *D sky130_fd_sc_hd__clkbuf_1
*CAP
1 *1532:D 0.000208204
2 *1447:X 0.000208204
3 *1532:D *1532:CLK 0.000360922
4 *1532:D *334:86 3.17784e-05
5 *1532:D *422:14 0.000101771
*RES
1 *1447:X *1532:D 32.3902 
*END

*D_NET *134 0.00037841
*CONN
*I *1533:D I *D sky130_fd_sc_hd__dfxtp_1
*I *1449:X O *D sky130_fd_sc_hd__clkbuf_1
*CAP
1 *1533:D 0.000152712
2 *1449:X 0.000152712
3 *1533:D *1236:B1 4.87669e-06
4 *1533:D *1448:A0 0
5 *1533:D *1533:CLK 1.64343e-05
6 *1533:D *165:63 0
7 *1533:D *172:26 5.16759e-05
*RES
1 *1449:X *1533:D 30.2473 
*END

*D_NET *135 0.000348877
*CONN
*I *1534:D I *D sky130_fd_sc_hd__dfxtp_1
*I *1451:X O *D sky130_fd_sc_hd__clkbuf_1
*CAP
1 *1534:D 9.42284e-05
2 *1451:X 9.42284e-05
3 *1534:D *165:63 0.000101227
4 *1534:D *175:33 5.91935e-05
*RES
1 *1451:X *1534:D 29.5152 
*END

*D_NET *136 0.000386335
*CONN
*I *1535:D I *D sky130_fd_sc_hd__dfxtp_1
*I *1453:X O *D sky130_fd_sc_hd__clkbuf_1
*CAP
1 *1535:D 0.000109202
2 *1453:X 0.000109202
3 *1535:D *1453:A 0.000167931
*RES
1 *1453:X *1535:D 20.658 
*END

*D_NET *137 0.00187357
*CONN
*I *1156:A I *D sky130_fd_sc_hd__or4_1
*I *1275:A I *D sky130_fd_sc_hd__xnor2_2
*I *1175:A1 I *D sky130_fd_sc_hd__o21a_1
*I *1152:X O *D sky130_fd_sc_hd__xor2_2
*CAP
1 *1156:A 0.0002036
2 *1275:A 0
3 *1175:A1 4.29917e-05
4 *1152:X 0.000118917
5 *137:21 0.000431901
6 *137:8 0.000390209
7 *1156:A *1156:B 3.69047e-06
8 *1156:A *1156:D 0.000139631
9 *1156:A *1281:A2 8.6229e-06
10 *1156:A *139:14 0.00014627
11 *1156:A *139:29 1.00733e-05
12 *1156:A *142:10 0
13 *1156:A *154:10 0
14 *1156:A *238:10 0.000147828
15 *1175:A1 *1175:B1 0.000154289
16 *1175:A1 *1176:B 6.1565e-05
17 *1175:A1 *168:30 1.39841e-05
18 *137:8 *1176:A 0
19 *137:8 *142:10 0
20 *137:21 *1175:A2 0
21 *137:21 *1176:A 0
22 *137:21 *142:10 0
*RES
1 *1152:X *137:8 15.4429 
2 *137:8 *1175:A1 15.5857 
3 *137:8 *137:21 3.16071 
4 *137:21 *1275:A 13.8 
5 *137:21 *1156:A 18.1393 
*END

*D_NET *138 0.00243657
*CONN
*I *1280:A I *D sky130_fd_sc_hd__nor3_1
*I *1282:A I *D sky130_fd_sc_hd__xor2_2
*I *1156:B I *D sky130_fd_sc_hd__or4_1
*I *1173:A1 I *D sky130_fd_sc_hd__o21a_1
*I *1153:X O *D sky130_fd_sc_hd__xor2_2
*CAP
1 *1280:A 9.24314e-05
2 *1282:A 1.34331e-05
3 *1156:B 0.000170699
4 *1173:A1 6.14882e-05
5 *1153:X 0
6 *138:30 0.000191798
7 *138:15 0.000325116
8 *138:4 0.000129971
9 *1156:B *1173:B1 0.000128154
10 *1156:B *1281:A2 9.33907e-05
11 *1156:B *1538:A 2.49484e-05
12 *1156:B *163:191 2.13481e-06
13 *1156:B *238:16 5.33334e-05
14 *1173:A1 *1173:A2 0.000263276
15 *1173:A1 *1173:B1 0.000122101
16 *1280:A *1273:A 5.7661e-06
17 *1280:A *1280:B 9.96264e-05
18 *1280:A *139:54 9.25014e-06
19 *1280:A *142:40 0
20 *1282:A *1153:A 3.99614e-06
21 *1282:A *1273:A 1.68864e-05
22 *1282:A *1282:B 5.21159e-06
23 *138:15 *1173:A2 0.000268396
24 *138:15 *1173:B1 0.000114645
25 *138:30 *1153:A 2.61099e-05
26 *138:30 *1173:A2 0.000181803
27 *138:30 *1282:B 2.89114e-05
28 *1156:A *1156:B 3.69047e-06
*RES
1 *1153:X *138:4 9.3 
2 *138:4 *1173:A1 11.9071 
3 *138:4 *138:15 2.58929 
4 *138:15 *1156:B 21.9071 
5 *138:15 *138:30 2.17857 
6 *138:30 *1282:A 9.72857 
7 *138:30 *1280:A 20.0679 
*END

*D_NET *139 0.00505198
*CONN
*I *1280:B I *D sky130_fd_sc_hd__nor3_1
*I *1173:A2 I *D sky130_fd_sc_hd__o21a_1
*I *1273:A I *D sky130_fd_sc_hd__or2_1
*I *1282:B I *D sky130_fd_sc_hd__xor2_2
*I *1156:C I *D sky130_fd_sc_hd__or4_1
*I *1154:Y O *D sky130_fd_sc_hd__nor2b_2
*CAP
1 *1280:B 0.000103204
2 *1173:A2 0.000511074
3 *1273:A 0.000302763
4 *1282:B 0.00034193
5 *1156:C 0
6 *1154:Y 0.000220355
7 *139:54 0.000687721
8 *139:29 0.000275704
9 *139:14 0.00038345
10 *1173:A2 *1173:B1 2.13546e-05
11 *1273:A *1153:A 6.95811e-05
12 *1273:A *1273:B 5.28345e-05
13 *1273:A *435:14 0.000141734
14 *1273:A *435:52 1.10868e-05
15 *1280:B *1172:A 7.1959e-05
16 *1280:B *1281:A2 4.35945e-05
17 *1280:B *1535:CLK 0.000144074
18 *1282:B *1153:A 0.000100684
19 *139:14 *1157:A 9.83388e-05
20 *139:14 *167:122 0.000272597
21 *139:29 *1281:A2 0.000125731
22 *139:29 *142:40 0
23 *139:54 *1281:A2 3.67356e-05
24 *139:54 *142:40 0
25 *1156:A *139:14 0.00014627
26 *1156:A *139:29 1.00733e-05
27 *1173:A1 *1173:A2 0.000263276
28 *1280:A *1273:A 5.7661e-06
29 *1280:A *1280:B 9.96264e-05
30 *1280:A *139:54 9.25014e-06
31 *1282:A *1273:A 1.68864e-05
32 *1282:A *1282:B 5.21159e-06
33 *138:15 *1173:A2 0.000268396
34 *138:30 *1173:A2 0.000181803
35 *138:30 *1282:B 2.89114e-05
*RES
1 *1154:Y *139:14 23.5679 
2 *139:14 *1156:C 9.3 
3 *139:14 *139:29 7.94643 
4 *139:29 *1282:B 5.8125 
5 *1282:B *1273:A 14.7554 
6 *139:29 *139:54 1.03571 
7 *139:54 *1173:A2 21.2286 
8 *139:54 *1280:B 16.925 
*END

*D_NET *140 0.00392125
*CONN
*I *1280:C I *D sky130_fd_sc_hd__nor3_1
*I *1273:B I *D sky130_fd_sc_hd__or2_1
*I *1156:D I *D sky130_fd_sc_hd__or4_1
*I *1155:X O *D sky130_fd_sc_hd__and2b_1
*CAP
1 *1280:C 0.000357974
2 *1273:B 3.52234e-05
3 *1156:D 0.000226296
4 *1155:X 0.000220854
5 *140:21 0.000572501
6 *140:8 0.000626454
7 *1156:D *163:191 0.000614609
8 *1156:D *515:50 9.99853e-05
9 *1156:D *515:61 0.000173836
10 *1273:B *435:52 0.000133778
11 *1280:C *1172:A 7.19508e-05
12 *1280:C *1535:CLK 0.000485878
13 *1280:C *1647:A 0
14 *1280:C *429:25 0
15 *140:8 *163:191 9.14771e-06
16 *140:8 *297:14 8.83642e-05
17 *140:8 *515:44 0
18 *140:21 *1172:A 0
19 *140:21 *1647:A 0
20 *140:21 *297:14 1.19309e-05
21 *140:21 *515:44 0
22 *1156:A *1156:D 0.000139631
23 *1273:A *1273:B 5.28345e-05
*RES
1 *1155:X *140:8 17.5679 
2 *140:8 *1156:D 20.6214 
3 *140:8 *140:21 2.85714 
4 *140:21 *1273:B 15.175 
5 *140:21 *1280:C 21.1214 
*END

*D_NET *141 0.00145058
*CONN
*I *1157:A I *D sky130_fd_sc_hd__clkbuf_4
*I *1156:X O *D sky130_fd_sc_hd__or4_1
*CAP
1 *1157:A 0.000255401
2 *1156:X 0.000255401
3 *1157:A *1154:A 0.000315711
4 *1157:A *1173:B1 2.11419e-05
5 *1157:A *142:8 0.000398324
6 *1157:A *142:10 5.37741e-06
7 *1157:A *142:40 6.58437e-05
8 *1157:A *167:122 3.50409e-05
9 *139:14 *1157:A 9.83388e-05
*RES
1 *1156:X *1157:A 34.9214 
*END

*D_NET *142 0.0205601
*CONN
*I *1281:B1 I *D sky130_fd_sc_hd__o21a_1
*I *1269:A I *D sky130_fd_sc_hd__nor2_2
*I *1277:A I *D sky130_fd_sc_hd__and2_1
*I *1186:A1 I *D sky130_fd_sc_hd__o21a_4
*I *1182:A1 I *D sky130_fd_sc_hd__o2111a_1
*I *1179:A1 I *D sky130_fd_sc_hd__o211a_1
*I *1184:A1 I *D sky130_fd_sc_hd__o211a_1
*I *1165:A I *D sky130_fd_sc_hd__or2_2
*I *1159:A1 I *D sky130_fd_sc_hd__o2111a_1
*I *1157:X O *D sky130_fd_sc_hd__clkbuf_4
*CAP
1 *1281:B1 3.93754e-05
2 *1269:A 0
3 *1277:A 0
4 *1186:A1 0.000347094
5 *1182:A1 8.79557e-05
6 *1179:A1 0.000574718
7 *1184:A1 8.38015e-05
8 *1165:A 1.8268e-05
9 *1159:A1 0.000198211
10 *1157:X 0.000299611
11 *142:132 0.00194167
12 *142:116 0.00232583
13 *142:73 0.000988533
14 *142:71 0.00157929
15 *142:61 0.00145259
16 *142:55 0.000409876
17 *142:40 0.000886285
18 *142:10 0.000483071
19 *142:8 0.00116028
20 *1159:A1 *1322:A 0
21 *1159:A1 *515:44 0.000240339
22 *1165:A *268:18 5.49489e-05
23 *1165:A *516:59 1.2104e-05
24 *1179:A1 *1179:B1 5.48581e-05
25 *1179:A1 *1182:C1 0
26 *1179:A1 *1187:A 0
27 *1179:A1 *1187:B 5.01213e-05
28 *1179:A1 *1472:CLK 0
29 *1179:A1 *1474:CLK 0
30 *1179:A1 *157:10 0
31 *1179:A1 *159:14 2.34969e-05
32 *1179:A1 *163:154 0.000184282
33 *1179:A1 *329:18 0
34 *1179:A1 *512:12 0.000219592
35 *1182:A1 *1182:A2 1.60328e-05
36 *1182:A1 *1473:CLK 5.49995e-05
37 *1184:A1 *176:24 2.61821e-05
38 *1186:A1 *1182:A2 0.000125321
39 *1186:A1 *1186:A2 9.35228e-06
40 *1186:A1 *1186:B1 4.84159e-05
41 *1186:A1 *163:154 8.25843e-06
42 *1186:A1 *437:48 6.65619e-05
43 *1281:B1 *1281:A1 8.59075e-05
44 *142:8 *1154:A 2.28598e-05
45 *142:10 *515:44 0.000399686
46 *142:40 *1153:A 2.23987e-05
47 *142:40 *1172:A 0.000267814
48 *142:40 *1173:B1 2.11419e-05
49 *142:40 *1184:B1 9.56379e-06
50 *142:40 *1184:C1 2.11419e-05
51 *142:40 *1281:A1 1.65953e-05
52 *142:40 *1281:A2 0
53 *142:40 *1285:B1 6.05161e-06
54 *142:40 *165:38 0
55 *142:40 *176:24 5.76713e-05
56 *142:40 *241:10 0.00011959
57 *142:40 *430:14 9.11048e-06
58 *142:40 *435:14 5.09361e-05
59 *142:40 *515:44 0.000148189
60 *142:55 *1184:A2 0.000324572
61 *142:55 *1184:B1 7.58841e-05
62 *142:55 *1281:A1 0
63 *142:55 *430:14 0
64 *142:61 *1189:A 4.33899e-05
65 *142:61 *1281:A1 5.33005e-05
66 *142:61 *160:45 9.35906e-05
67 *142:61 *165:8 5.50052e-05
68 *142:71 *1188:A 0.000104603
69 *142:71 *1189:A 5.6647e-05
70 *142:71 *1191:B 9.67754e-05
71 *142:71 *1191:C 1.98839e-05
72 *142:71 *152:61 0.000617317
73 *142:71 *160:45 2.34113e-05
74 *142:71 *444:31 1.90303e-05
75 *142:73 *1182:A2 0.000354198
76 *142:73 *1182:B1 7.58841e-05
77 *142:73 *163:154 4.94403e-05
78 *142:116 *1297:A 0
79 *142:116 *1457:CLK 0.000101985
80 *142:116 *328:113 0.000129366
81 *142:116 *330:10 0.000156923
82 *142:116 *437:89 0.000547678
83 *142:132 *1224:A2 0
84 *142:132 *1225:B1 0
85 *142:132 *1227:A2 0.000216504
86 *142:132 *1230:B2 0.000476023
87 *142:132 *1252:A1 0
88 *142:132 *1292:A0 3.8361e-06
89 *142:132 *1293:A 0.00012675
90 *142:132 *1297:A 1.02504e-05
91 *142:132 *1404:A0 0
92 *142:132 *1484:CLK 0
93 *142:132 *1543:A 0
94 *142:132 *158:135 0.000125716
95 *142:132 *167:38 0
96 *142:132 *288:100 0
97 *142:132 *328:83 0
98 *142:132 *334:21 0
99 *142:132 *334:86 0
100 *142:132 *425:55 0.000513438
101 *142:132 *437:122 5.98769e-05
102 *1156:A *142:10 0
103 *1157:A *142:8 0.000398324
104 *1157:A *142:10 5.37741e-06
105 *1157:A *142:40 6.58437e-05
106 *1280:A *142:40 0
107 *1500:D *142:132 0.000128509
108 *1524:D *142:132 0.000100823
109 *137:8 *142:10 0
110 *137:21 *142:10 0
111 *139:29 *142:40 0
112 *139:54 *142:40 0
*RES
1 *1157:X *142:8 18.0321 
2 *142:8 *142:10 5.28571 
3 *142:10 *1159:A1 17.4964 
4 *142:10 *1165:A 14.3357 
5 *142:8 *142:40 16.7679 
6 *142:40 *1184:A1 10.5679 
7 *142:40 *142:55 13.375 
8 *142:55 *142:61 3.55357 
9 *142:61 *142:71 17.5179 
10 *142:71 *142:73 6.19643 
11 *142:73 *1179:A1 25.4607 
12 *142:73 *1182:A1 15.6036 
13 *142:71 *1186:A1 18.9964 
14 *142:61 *142:116 18.5357 
15 *142:116 *142:132 49.1607 
16 *142:132 *1277:A 9.3 
17 *142:116 *1269:A 9.3 
18 *142:55 *1281:B1 10.2464 
*END

*D_NET *143 0.00347594
*CONN
*I *1159:A2 I *D sky130_fd_sc_hd__o2111a_1
*I *1176:A I *D sky130_fd_sc_hd__xnor2_4
*I *1165:B I *D sky130_fd_sc_hd__or2_2
*I *1158:Y O *D sky130_fd_sc_hd__xnor2_4
*CAP
1 *1159:A2 0.000305882
2 *1176:A 0.000119573
3 *1165:B 0.000114822
4 *1158:Y 0.000432886
5 *143:10 0.000387401
6 *143:6 0.000891775
7 *1159:A2 *245:132 0.000477939
8 *1165:B *268:18 0.000308586
9 *1165:B *516:59 0.00014894
10 *1176:A *245:20 0
11 *143:6 *244:47 4.94197e-05
12 *143:6 *245:20 0.000183711
13 *143:6 *245:132 5.50052e-05
14 *137:8 *1176:A 0
15 *137:21 *1176:A 0
*RES
1 *1158:Y *143:6 14.7643 
2 *143:6 *143:10 6.75 
3 *143:10 *1165:B 18.5857 
4 *143:10 *1176:A 15.7464 
5 *143:6 *1159:A2 13.9429 
*END

*D_NET *144 0.00414093
*CONN
*I *1160:B I *D sky130_fd_sc_hd__nand2_2
*I *1162:B I *D sky130_fd_sc_hd__or2_1
*I *1381:C_N I *D sky130_fd_sc_hd__or3b_1
*I *1168:A I *D sky130_fd_sc_hd__nor2_1
*I *1159:X O *D sky130_fd_sc_hd__o2111a_1
*CAP
1 *1160:B 0
2 *1162:B 0.000276995
3 *1381:C_N 0.000341317
4 *1168:A 0.000178853
5 *1159:X 0.000116429
6 *144:46 0.000697555
7 *144:10 0.000664483
8 *144:8 0.000681302
9 *1162:B *1161:B 2.95726e-05
10 *1162:B *145:29 1.24368e-05
11 *1162:B *288:68 0.000242763
12 *1162:B *329:41 7.02611e-05
13 *1162:B *499:8 0
14 *1168:A *1168:B 5.71472e-05
15 *1168:A *244:8 4.88637e-05
16 *1381:C_N *1476:CLK 9.58508e-05
17 *1381:C_N *329:62 5.76121e-05
18 *144:10 *1167:B 0
19 *144:46 *1167:A 1.87331e-05
20 *144:46 *1289:A 7.32955e-05
21 *144:46 *1289:B 0.000226272
22 *144:46 *145:29 9.24804e-05
23 *1477:D *1168:A 8.96812e-05
24 *1477:RESET_B *1168:A 4.1331e-06
25 *1477:RESET_B *144:10 6.48957e-05
*RES
1 *1159:X *144:8 15.4429 
2 *144:8 *144:10 3.16071 
3 *144:10 *1168:A 17.3536 
4 *144:10 *1381:C_N 18.7821 
5 *144:8 *144:46 12.0536 
6 *144:46 *1162:B 24.05 
7 *144:46 *1160:B 9.3 
*END

*D_NET *145 0.00300142
*CONN
*I *1289:B I *D sky130_fd_sc_hd__nor2_4
*I *1163:A I *D sky130_fd_sc_hd__and2_1
*I *1161:B I *D sky130_fd_sc_hd__xnor2_1
*I *1160:Y O *D sky130_fd_sc_hd__nand2_2
*CAP
1 *1289:B 4.25181e-05
2 *1163:A 6.2632e-05
3 *1161:B 0.000345872
4 *1160:Y 0
5 *145:29 0.000234179
6 *145:4 0.000474901
7 *1161:B *1161:A 0.000223602
8 *1161:B *1163:B 0.000353073
9 *1161:B *1164:A 0.000229636
10 *1161:B *329:41 0.000100831
11 *1161:B *329:62 5.52302e-05
12 *1163:A *1163:B 0.000170625
13 *1163:A *244:47 0.000146853
14 *1289:B *1289:A 0.000186669
15 *1162:B *1161:B 2.95726e-05
16 *1162:B *145:29 1.24368e-05
17 *1478:D *1161:B 1.40415e-05
18 *144:46 *1289:B 0.000226272
19 *144:46 *145:29 9.24804e-05
*RES
1 *1160:Y *145:4 9.3 
2 *145:4 *1161:B 27.3 
3 *145:4 *145:29 2.64286 
4 *145:29 *1163:A 20.55 
5 *145:29 *1289:B 11.4786 
*END

*D_NET *146 0.00200545
*CONN
*I *1163:B I *D sky130_fd_sc_hd__and2_1
*I *1162:X O *D sky130_fd_sc_hd__or2_1
*CAP
1 *1163:B 0.00049959
2 *1162:X 0.00049959
3 *1163:B *244:21 4.46186e-06
4 *1163:B *244:30 6.07232e-05
5 *1163:B *244:47 6.25266e-06
6 *1163:B *329:62 8.86413e-05
7 *1163:B *516:40 0.000150348
8 *1163:B *516:49 0.000172147
9 *1161:B *1163:B 0.000353073
10 *1163:A *1163:B 0.000170625
*RES
1 *1162:X *1163:B 36.725 
*END

*D_NET *147 0.00163545
*CONN
*I *1164:A I *D sky130_fd_sc_hd__clkbuf_1
*I *1163:X O *D sky130_fd_sc_hd__and2_1
*CAP
1 *1164:A 0.000409917
2 *1163:X 0.000409917
3 *1164:A *1162:A 2.89016e-05
4 *1164:A *1382:A 3.18676e-05
5 *1164:A *1478:CLK 9.69119e-06
6 *1164:A *288:8 2.89114e-05
7 *1164:A *288:68 0
8 *1164:A *329:41 1.46624e-05
9 *1164:A *329:62 0.000140933
10 *1164:A *516:29 9.25014e-06
11 *1164:A *516:40 0.000206904
12 *1164:A *516:49 0.000114861
13 *1161:B *1164:A 0.000229636
*RES
1 *1163:X *1164:A 36.6179 
*END

*D_NET *148 0.00372258
*CONN
*I *1399:D I *D sky130_fd_sc_hd__and4_1
*I *1271:A I *D sky130_fd_sc_hd__inv_2
*I *1325:D I *D sky130_fd_sc_hd__and4b_1
*I *1169:A2 I *D sky130_fd_sc_hd__a21oi_1
*I *1166:C I *D sky130_fd_sc_hd__and3_1
*I *1165:X O *D sky130_fd_sc_hd__or2_2
*CAP
1 *1399:D 0.000181648
2 *1271:A 9.20101e-05
3 *1325:D 0.000100101
4 *1169:A2 0
5 *1166:C 1.91813e-05
6 *1165:X 2.12534e-05
7 *148:34 0.000306066
8 *148:27 0.000332708
9 *148:12 0.000419168
10 *148:6 0.000384135
11 *1166:C *1166:B 2.51343e-06
12 *1271:A *514:14 0.000183711
13 *1325:D *413:32 2.3541e-05
14 *1399:D *268:18 0.000140264
15 *1399:D *297:14 2.26669e-05
16 *1399:D *516:59 0.000138217
17 *148:6 *268:18 8.25843e-06
18 *148:6 *516:59 5.33005e-05
19 *148:12 *515:14 7.74068e-05
20 *148:12 *515:44 0.000213579
21 *148:27 *1159:C1 3.14003e-05
22 *148:27 *1166:A 5.65955e-05
23 *148:27 *1166:B 1.82328e-05
24 *148:27 *1272:A1 1.03904e-05
25 *148:27 *514:16 0.000141729
26 *148:34 *413:77 0.00018372
27 *148:34 *514:14 0.000292175
28 *148:34 *514:16 5.50052e-05
29 *1399:C *1325:D 3.45899e-05
30 *1399:C *1399:D 5.49995e-05
31 *37:10 *1325:D 0.000124019
*RES
1 *1165:X *148:6 9.83571 
2 *148:6 *148:12 12.7679 
3 *148:12 *1166:C 9.49643 
4 *148:12 *148:27 12.3214 
5 *148:27 *1169:A2 9.3 
6 *148:27 *148:34 3.41071 
7 *148:34 *1325:D 20.483 
8 *148:34 *1271:A 11.4786 
9 *148:6 *1399:D 14.5143 
*END

*D_NET *149 0.00155443
*CONN
*I *1170:A I *D sky130_fd_sc_hd__nor2_1
*I *1167:B I *D sky130_fd_sc_hd__nor2_1
*I *1166:X O *D sky130_fd_sc_hd__and3_1
*CAP
1 *1170:A 0.000199582
2 *1167:B 0.000257805
3 *1166:X 0
4 *149:4 0.000457387
5 *1167:B *1167:A 1.8899e-05
6 *1167:B *1168:B 1.02504e-05
7 *1167:B *1322:A 4.26551e-05
8 *1170:A *1170:B 0
9 *1170:A *1272:A1 0
10 *1170:A *1288:A 1.02504e-05
11 *1170:A *1321:A 5.68713e-05
12 *1170:A *1322:A 0.0001975
13 *1170:A *515:14 0.000150618
14 *1476:D *1170:A 8.72828e-05
15 *1477:RESET_B *1167:B 6.53273e-05
16 *144:10 *1167:B 0
*RES
1 *1166:X *149:4 9.3 
2 *149:4 *1167:B 21.8179 
3 *149:4 *1170:A 23.4429 
*END

*D_NET *150 0.00101554
*CONN
*I *1168:B I *D sky130_fd_sc_hd__nor2_1
*I *1167:Y O *D sky130_fd_sc_hd__nor2_1
*CAP
1 *1168:B 0.000269254
2 *1167:Y 0.000269254
3 *1168:B *1322:A 0
4 *1168:B *244:8 0.000232399
5 *1167:B *1168:B 1.02504e-05
6 *1168:A *1168:B 5.71472e-05
7 *1477:RESET_B *1168:B 0.000177234
*RES
1 *1167:Y *1168:B 33.975 
*END

*D_NET *151 0.0012552
*CONN
*I *1170:B I *D sky130_fd_sc_hd__nor2_1
*I *1169:Y O *D sky130_fd_sc_hd__a21oi_1
*CAP
1 *1170:B 0.000406537
2 *1169:Y 0.000406537
3 *1170:B *1166:B 9.99853e-05
4 *1170:B *1272:A1 0.000149886
5 *1170:B *1306:A 5.65955e-05
6 *1170:B *1321:A 5.10288e-05
7 *1170:B *288:36 6.8377e-06
8 *1170:B *413:77 2.12005e-05
9 *1170:A *1170:B 0
10 *1476:RESET_B *1170:B 5.65955e-05
*RES
1 *1169:Y *1170:B 35.3679 
*END

*D_NET *152 0.0107496
*CONN
*I *1172:A I *D sky130_fd_sc_hd__or2b_1
*I *1200:B I *D sky130_fd_sc_hd__and3b_4
*I *1192:B I *D sky130_fd_sc_hd__nor3b_2
*I *1182:B1 I *D sky130_fd_sc_hd__o2111a_1
*I *1185:A1 I *D sky130_fd_sc_hd__o21ba_1
*I *1178:B I *D sky130_fd_sc_hd__and3_4
*I *1191:B I *D sky130_fd_sc_hd__and3b_4
*I *1188:A I *D sky130_fd_sc_hd__or2_1
*I *1199:C_N I *D sky130_fd_sc_hd__nor3b_4
*I *1195:A_N I *D sky130_fd_sc_hd__and3b_1
*I *1171:X O *D sky130_fd_sc_hd__buf_2
*CAP
1 *1172:A 0.000416844
2 *1200:B 0
3 *1192:B 0
4 *1182:B1 0.000177414
5 *1185:A1 0.000176795
6 *1178:B 0.000242042
7 *1191:B 3.07099e-05
8 *1188:A 9.08968e-05
9 *1199:C_N 0
10 *1195:A_N 0.000114837
11 *1171:X 0
12 *152:95 0.000564576
13 *152:87 0.000210368
14 *152:72 0.000353253
15 *152:61 0.000320332
16 *152:46 0.000405871
17 *152:24 0.00014658
18 *152:18 0.000278424
19 *152:12 0.000499971
20 *152:4 0.000806697
21 *1172:A *1153:A 0.00010326
22 *1172:A *1535:CLK 5.62479e-05
23 *1172:A *435:14 0.000120329
24 *1178:B *1183:A1 0.000182694
25 *1178:B *1186:B1 3.40655e-05
26 *1178:B *157:16 5.52238e-05
27 *1178:B *268:18 0.000381432
28 *1178:B *499:19 0.000118339
29 *1178:B *512:21 3.30417e-05
30 *1182:B1 *1182:A2 0.000100037
31 *1182:B1 *1182:D1 5.49489e-05
32 *1185:A1 *1185:B1_N 0.000194406
33 *1185:A1 *268:26 2.84026e-05
34 *1188:A *160:45 0.000223675
35 *1191:B *1191:C 5.50052e-05
36 *1195:A_N *1185:A2 0.000138631
37 *1195:A_N *1196:A 5.33005e-05
38 *1195:A_N *157:69 8.43535e-06
39 *1195:A_N *168:16 3.97677e-05
40 *1195:A_N *512:75 9.27431e-05
41 *1195:A_N *512:82 6.57032e-05
42 *152:12 *1153:B 0
43 *152:12 *1171:A 9.60939e-05
44 *152:12 *1535:CLK 9.93135e-05
45 *152:12 *245:20 0.000264321
46 *152:12 *330:10 4.50424e-05
47 *152:12 *511:10 0
48 *152:18 *1185:A2 2.12733e-05
49 *152:18 *1200:C 0.000194662
50 *152:18 *167:122 0.000144904
51 *152:18 *245:20 2.01791e-05
52 *152:18 *511:10 7.22574e-05
53 *152:24 *1196:A 5.33005e-05
54 *152:24 *1199:A 3.45371e-05
55 *152:24 *512:82 1.98839e-05
56 *152:46 *158:83 1.25366e-05
57 *152:46 *167:122 0.000203342
58 *152:46 *245:20 0.000114948
59 *152:61 *1181:A 0.000268049
60 *152:61 *160:45 8.43535e-06
61 *152:61 *167:6 1.98839e-05
62 *152:61 *167:122 5.96516e-05
63 *152:72 *1186:B1 0.000113325
64 *152:72 *268:18 5.4315e-05
65 *152:72 *288:68 6.02223e-05
66 *152:95 *1185:A2 0.000115809
67 *152:95 *1185:B1_N 6.33738e-05
68 *152:95 *1192:C_N 5.33005e-05
69 *1280:B *1172:A 7.1959e-05
70 *1280:C *1172:A 7.19508e-05
71 *1473:D *1178:B 7.74068e-05
72 *1473:D *152:95 0.000177591
73 *140:21 *1172:A 0
74 *142:40 *1172:A 0.000267814
75 *142:71 *1188:A 0.000104603
76 *142:71 *1191:B 9.67754e-05
77 *142:71 *152:61 0.000617317
78 *142:73 *1182:B1 7.58841e-05
*RES
1 *1171:X *152:4 9.3 
2 *152:4 *152:12 15.875 
3 *152:12 *152:18 7.80357 
4 *152:18 *152:24 5.46429 
5 *152:24 *1195:A_N 12.6929 
6 *152:24 *1199:C_N 9.3 
7 *152:18 *152:46 7.66071 
8 *152:46 *1188:A 12.3357 
9 *152:46 *152:61 6.30357 
10 *152:61 *1191:B 10.2464 
11 *152:61 *152:72 7.66071 
12 *152:72 *1178:B 20.9786 
13 *152:72 *152:87 4.5 
14 *152:87 *152:95 4.39286 
15 *152:95 *1185:A1 20.925 
16 *152:95 *1182:B1 21.1036 
17 *152:87 *1192:B 9.3 
18 *152:12 *1200:B 9.3 
19 *152:4 *1172:A 25.9964 
*END

*D_NET *153 0.00241101
*CONN
*I *1173:B1 I *D sky130_fd_sc_hd__o21a_1
*I *1172:X O *D sky130_fd_sc_hd__or2b_1
*CAP
1 *1173:B1 0.00061944
2 *1172:X 0.00061944
3 *1173:B1 *1281:A2 1.07753e-05
4 *1173:B1 *1538:A 0.000165001
5 *1173:B1 *154:10 0.000482601
6 *1173:B1 *158:45 8.52135e-05
7 *1156:B *1173:B1 0.000128154
8 *1157:A *1173:B1 2.11419e-05
9 *1173:A1 *1173:B1 0.000122101
10 *1173:A2 *1173:B1 2.13546e-05
11 *1537:A *1173:B1 0
12 *138:15 *1173:B1 0.000114645
13 *142:40 *1173:B1 2.11419e-05
*RES
1 *1172:X *1173:B1 43.4555 
*END

*D_NET *154 0.00310879
*CONN
*I *1275:B I *D sky130_fd_sc_hd__xnor2_2
*I *1175:A2 I *D sky130_fd_sc_hd__o21a_1
*I *1173:X O *D sky130_fd_sc_hd__o21a_1
*CAP
1 *1275:B 1.40355e-05
2 *1175:A2 0.000408964
3 *1173:X 0.000515794
4 *154:10 0.000938793
5 *1175:A2 *158:45 4.11173e-05
6 *1175:A2 *168:30 0.000447821
7 *1175:A2 *245:20 0
8 *1275:B *167:122 5.52302e-05
9 *1275:B *238:10 2.89114e-05
10 *154:10 *1538:A 0.000175519
11 *154:10 *238:10 0
12 *154:10 *245:20 0
13 *1156:A *154:10 0
14 *1173:B1 *154:10 0.000482601
15 *137:21 *1175:A2 0
*RES
1 *1173:X *154:10 23.6393 
2 *154:10 *1175:A2 19.9786 
3 *154:10 *1275:B 14.3357 
*END

*D_NET *155 0.00214879
*CONN
*I *1175:B1 I *D sky130_fd_sc_hd__o21a_1
*I *1174:X O *D sky130_fd_sc_hd__or2b_1
*CAP
1 *1175:B1 0.000836768
2 *1174:X 0.000836768
3 *1175:B1 *1174:B_N 7.77652e-05
4 *1175:B1 *1176:B 4.7812e-05
5 *1175:B1 *168:30 0.000195388
6 *1175:A1 *1175:B1 0.000154289
*RES
1 *1174:X *1175:B1 30.1357 
*END

*D_NET *156 0.000623239
*CONN
*I *1176:B I *D sky130_fd_sc_hd__xnor2_4
*I *1175:X O *D sky130_fd_sc_hd__o21a_1
*CAP
1 *1176:B 0.000100201
2 *1175:X 0.000100201
3 *1176:B *168:30 0.000313461
4 *1175:A1 *1176:B 6.1565e-05
5 *1175:B1 *1176:B 4.7812e-05
*RES
1 *1175:X *1176:B 22.0286 
*END

*D_NET *157 0.0117381
*CONN
*I *1191:C I *D sky130_fd_sc_hd__and3b_4
*I *1188:B I *D sky130_fd_sc_hd__or2_1
*I *1184:B1 I *D sky130_fd_sc_hd__o211a_1
*I *1200:A_N I *D sky130_fd_sc_hd__and3b_4
*I *1199:B I *D sky130_fd_sc_hd__nor3b_4
*I *1195:B I *D sky130_fd_sc_hd__and3b_1
*I *1192:C_N I *D sky130_fd_sc_hd__nor3b_2
*I *1178:C I *D sky130_fd_sc_hd__and3_4
*I *1182:C1 I *D sky130_fd_sc_hd__o2111a_1
*I *1187:A I *D sky130_fd_sc_hd__xor2_1
*I *1177:X O *D sky130_fd_sc_hd__clkbuf_4
*CAP
1 *1191:C 8.93258e-05
2 *1188:B 6.7081e-05
3 *1184:B1 0.000335955
4 *1200:A_N 6.35149e-05
5 *1199:B 0
6 *1195:B 0
7 *1192:C_N 1.69531e-05
8 *1178:C 0
9 *1182:C1 0.000212509
10 *1187:A 0.00040211
11 *1177:X 0.000739945
12 *157:86 0.000485697
13 *157:75 0.000181293
14 *157:69 0.000413291
15 *157:60 0.000659111
16 *157:56 0.000528753
17 *157:45 0.000199466
18 *157:16 0.000811345
19 *157:12 0.000196726
20 *157:10 0.000890997
21 *1182:C1 *1182:D1 6.25407e-05
22 *1182:C1 *1183:A2 0.000200345
23 *1182:C1 *444:10 0
24 *1184:B1 *1184:A2 3.30828e-05
25 *1184:B1 *1184:C1 1.01912e-05
26 *1184:B1 *1196:A 6.87966e-05
27 *1184:B1 *172:24 6.05161e-06
28 *1184:B1 *175:14 5.20359e-06
29 *1187:A *1183:B1_N 0
30 *1187:A *1187:B 5.68722e-05
31 *1187:A *1474:CLK 0.000257556
32 *1187:A *159:14 2.36643e-05
33 *1187:A *329:18 5.83304e-05
34 *1187:A *444:10 0
35 *1188:B *245:20 0.000137102
36 *1188:B *330:10 4.40806e-05
37 *1191:C *1186:B1 0.00014925
38 *1191:C *163:154 0.000142351
39 *1192:C_N *1185:A2 5.33005e-05
40 *1200:A_N *1281:A2 2.76457e-05
41 *1200:A_N *330:10 2.95848e-05
42 *157:10 *1179:B1 0.000148903
43 *157:10 *1187:B 4.78056e-05
44 *157:10 *1317:A 0
45 *157:10 *163:154 0.000227569
46 *157:10 *268:18 0.000354078
47 *157:10 *329:18 0
48 *157:10 *499:8 0.000123637
49 *157:10 *499:19 0.00075275
50 *157:16 *1183:A1 0.000221143
51 *157:16 *512:21 4.53889e-05
52 *157:45 *1186:B1 0.000143528
53 *157:45 *163:154 0.000261478
54 *157:45 *499:19 0.000230305
55 *157:56 *1186:B1 7.49777e-05
56 *157:56 *163:154 6.78841e-05
57 *157:60 *1185:A2 1.38323e-05
58 *157:60 *168:16 0.000349777
59 *157:60 *268:26 0.000178503
60 *157:69 *1196:A 0.000109448
61 *157:69 *168:16 4.08637e-05
62 *157:75 *1196:A 0.000140243
63 *157:75 *245:20 7.86787e-05
64 *157:75 *330:10 2.26261e-05
65 *157:86 *1196:A 0.000140166
66 *157:86 *1281:A2 1.44587e-05
67 *157:86 *330:10 1.27349e-05
68 *1178:B *157:16 5.52238e-05
69 *1179:A1 *1182:C1 0
70 *1179:A1 *1187:A 0
71 *1179:A1 *157:10 0
72 *1191:B *1191:C 5.50052e-05
73 *1195:A_N *157:69 8.43535e-06
74 *142:40 *1184:B1 9.56379e-06
75 *142:55 *1184:B1 7.58841e-05
76 *142:71 *1191:C 1.98839e-05
77 *152:95 *1192:C_N 5.33005e-05
*RES
1 *1177:X *157:10 30.2107 
2 *157:10 *157:12 4.5 
3 *157:12 *157:16 9.14286 
4 *157:16 *1187:A 21.8536 
5 *157:16 *1182:C1 17.8 
6 *157:12 *1178:C 9.3 
7 *157:10 *157:45 4.98214 
8 *157:45 *1192:C_N 14.3357 
9 *157:45 *157:56 1.03571 
10 *157:56 *157:60 9.96429 
11 *157:60 *1195:B 9.3 
12 *157:60 *157:69 7.5 
13 *157:69 *157:75 6.89286 
14 *157:75 *1199:B 9.3 
15 *157:75 *157:86 6.58929 
16 *157:86 *1200:A_N 15.1393 
17 *157:86 *1184:B1 27.4429 
18 *157:69 *1188:B 15.7464 
19 *157:56 *1191:C 16.6929 
*END

*D_NET *158 0.0344696
*CONN
*I *1234:A2 I *D sky130_fd_sc_hd__a21o_1
*I *1261:A2 I *D sky130_fd_sc_hd__a21o_1
*I *1216:A2 I *D sky130_fd_sc_hd__a21o_1
*I *1243:A2 I *D sky130_fd_sc_hd__a21o_1
*I *1225:A2 I *D sky130_fd_sc_hd__a21o_1
*I *1252:A2 I *D sky130_fd_sc_hd__a21o_1
*I *1207:A2 I *D sky130_fd_sc_hd__a21o_1
*I *1194:A2 I *D sky130_fd_sc_hd__a21o_1
*I *1179:B1 I *D sky130_fd_sc_hd__o211a_1
*I *1178:X O *D sky130_fd_sc_hd__and3_4
*CAP
1 *1234:A2 0.000370506
2 *1261:A2 0.000106731
3 *1216:A2 0.000505756
4 *1243:A2 4.29437e-05
5 *1225:A2 0
6 *1252:A2 0
7 *1207:A2 0.00115499
8 *1194:A2 2.22994e-05
9 *1179:B1 0.000348267
10 *1178:X 1.66742e-05
11 *158:158 0.00241917
12 *158:135 0.00363838
13 *158:102 0.00195698
14 *158:91 0.000567385
15 *158:83 0.00159408
16 *158:45 0.00312608
17 *158:12 0.00249555
18 *158:6 0.00103957
19 *1179:B1 *1317:A 5.71472e-05
20 *1179:B1 *329:14 2.6684e-05
21 *1179:B1 *437:8 5.52238e-05
22 *1194:A2 *1380:A 0
23 *1207:A2 *1194:A1 5.49489e-05
24 *1207:A2 *1203:B1 5.20751e-05
25 *1207:A2 *1204:A1 0
26 *1207:A2 *1302:S 9.84729e-05
27 *1207:A2 *1303:A 6.05161e-06
28 *1207:A2 *1343:A0 4.48206e-05
29 *1207:A2 *1343:A1 9.47456e-05
30 *1207:A2 *1359:A0 3.85363e-05
31 *1207:A2 *1379:A0 1.59373e-05
32 *1207:A2 *167:142 7.7773e-05
33 *1207:A2 *477:26 3.09896e-05
34 *1207:A2 *488:32 4.07643e-05
35 *1207:A2 *488:51 0.000431874
36 *1207:A2 *488:61 0.000391494
37 *1216:A2 *1221:A1 0.00015999
38 *1216:A2 *1221:B1 5.49544e-05
39 *1216:A2 *1291:A 0.000357562
40 *1216:A2 *1339:S 1.26432e-05
41 *1216:A2 *1485:CLK 1.69976e-05
42 *1234:A2 *1234:A1 0.000100685
43 *1234:A2 *1234:B1 0.000272603
44 *1234:A2 *1249:A1 6.49911e-05
45 *1234:A2 *1457:CLK 0.000270552
46 *1234:A2 *396:8 0.000165497
47 *1234:A2 *444:66 0.000446618
48 *1243:A2 *1545:A 2.11419e-05
49 *1243:A2 *167:84 2.59355e-05
50 *1243:A2 *434:12 1.94879e-05
51 *1261:A2 *1261:A1 7.8442e-05
52 *1261:A2 *1261:B1 4.25176e-05
53 *1261:A2 *1480:CLK 1.59373e-05
54 *158:6 *1183:A1 5.52238e-05
55 *158:6 *512:21 1.40306e-05
56 *158:12 *268:18 0.000318129
57 *158:12 *288:68 0.000601406
58 *158:45 *1154:A 0.00039665
59 *158:45 *1363:A_N 5.33005e-05
60 *158:45 *1364:A 0.000132337
61 *158:45 *1380:A 0.000138881
62 *158:45 *167:122 0.000221841
63 *158:45 *167:142 0.00138171
64 *158:45 *258:8 2.89114e-05
65 *158:45 *329:14 2.03486e-05
66 *158:45 *510:6 0.000180764
67 *158:45 *510:19 0.000344617
68 *158:45 *514:92 8.36572e-05
69 *158:45 *514:115 0.000167436
70 *158:45 *515:44 4.19624e-06
71 *158:83 *1183:A1 0.000163455
72 *158:83 *1297:A 0
73 *158:83 *1535:CLK 9.0145e-05
74 *158:83 *1554:A 0
75 *158:83 *1632:A 0.000326311
76 *158:83 *167:10 0
77 *158:83 *167:25 0
78 *158:83 *167:122 0.000578566
79 *158:83 *168:30 0.000420224
80 *158:83 *245:20 0
81 *158:83 *437:42 3.8206e-05
82 *158:83 *444:66 0
83 *158:83 *512:21 1.90303e-05
84 *158:91 *1252:A1 0.000149911
85 *158:91 *1293:A 0
86 *158:91 *1297:A 0
87 *158:91 *1554:A 3.51442e-05
88 *158:91 *167:25 0.000548156
89 *158:102 *1252:A1 1.02504e-05
90 *158:102 *167:25 8.24605e-05
91 *158:102 *167:38 0.000107399
92 *158:102 *288:100 5.86894e-05
93 *158:102 *438:42 0.000192013
94 *158:135 *1222:A1 0.000142087
95 *158:135 *1225:B1 5.49995e-05
96 *158:135 *1230:B1 0.000227971
97 *158:135 *1230:B2 2.15529e-05
98 *158:135 *1240:A1 0
99 *158:135 *1242:A1 1.94945e-05
100 *158:135 *1298:A0 0.000216575
101 *158:135 *1299:A 8.46936e-05
102 *158:135 *1337:A0 2.12559e-05
103 *158:135 *1337:S 7.82431e-05
104 *158:135 *1338:A 9.47843e-06
105 *158:135 *1352:A 7.65766e-06
106 *158:135 *1490:CLK 0.000333894
107 *158:135 *167:65 9.5403e-05
108 *158:135 *333:16 3.08382e-06
109 *158:135 *438:75 0.000563619
110 *158:158 *1222:A1 0.00042218
111 *158:158 *1260:B2 1.17968e-05
112 *158:158 *1261:B1 0.000307343
113 *158:158 *1266:B1 5.52238e-05
114 *158:158 *1290:A0 0.000160419
115 *158:158 *1504:CLK 0.000224573
116 *158:158 *165:90 4.55036e-05
117 *158:158 *258:110 0.00034961
118 *158:158 *335:106 1.94879e-05
119 *1173:B1 *158:45 8.52135e-05
120 *1175:A2 *158:45 4.11173e-05
121 *1179:A1 *1179:B1 5.48581e-05
122 *1457:D *1234:A2 6.14332e-05
123 *1457:D *158:83 2.8266e-06
124 *1457:D *158:91 0
125 *1487:D *1207:A2 0.000234761
126 *1490:D *158:135 0.000213275
127 *142:132 *158:135 0.000125716
128 *152:46 *158:83 1.25366e-05
129 *157:10 *1179:B1 0.000148903
*RES
1 *1178:X *158:6 9.83571 
2 *158:6 *158:12 16.7143 
3 *158:12 *1179:B1 23.7821 
4 *158:12 *158:45 43.3249 
5 *158:45 *1194:A2 9.72857 
6 *158:45 *1207:A2 39.2286 
7 *158:6 *158:83 23.0179 
8 *158:83 *158:91 10.0357 
9 *158:91 *1252:A2 13.8 
10 *158:91 *158:102 9.48214 
11 *158:102 *1225:A2 9.3 
12 *158:102 *158:135 43.1509 
13 *158:135 *1243:A2 18.0225 
14 *158:135 *158:158 19.9047 
15 *158:158 *1216:A2 29.1571 
16 *158:158 *1261:A2 11.4964 
17 *158:83 *1234:A2 25.0321 
*END

*D_NET *159 0.00265163
*CONN
*I *1183:B1_N I *D sky130_fd_sc_hd__o21ba_1
*I *1180:B I *D sky130_fd_sc_hd__xor2_1
*I *1179:X O *D sky130_fd_sc_hd__o211a_1
*CAP
1 *1183:B1_N 0.000255245
2 *1180:B 6.55199e-05
3 *1179:X 0.000288825
4 *159:14 0.00060959
5 *1183:B1_N *1183:A1 0
6 *1183:B1_N *244:83 0.000227736
7 *1183:B1_N *444:10 0.000559974
8 *159:14 *1187:B 0.000108534
9 *159:14 *329:18 2.79092e-05
10 *1179:A1 *159:14 2.34969e-05
11 *1187:A *1183:B1_N 0
12 *1187:A *159:14 2.36643e-05
13 *1472:D *159:14 9.99853e-05
14 *1474:RESET_B *1183:B1_N 0.000177227
15 *1475:D *159:14 0.000183922
*RES
1 *1179:X *159:14 24.4071 
2 *159:14 *1180:B 10.2643 
3 *159:14 *1183:B1_N 26.675 
*END

*D_NET *160 0.0357558
*CONN
*I *1263:A1 I *D sky130_fd_sc_hd__a21oi_1
*I *1227:A1 I *D sky130_fd_sc_hd__a21oi_1
*I *1254:A1 I *D sky130_fd_sc_hd__a21oi_1
*I *1245:A1 I *D sky130_fd_sc_hd__a21oi_1
*I *1218:A1 I *D sky130_fd_sc_hd__a21oi_1
*I *1209:A1 I *D sky130_fd_sc_hd__a21oi_1
*I *1198:A1 I *D sky130_fd_sc_hd__a21oi_1
*I *1236:A1 I *D sky130_fd_sc_hd__a21oi_1
*I *1190:A I *D sky130_fd_sc_hd__or2_4
*I *1183:A1 I *D sky130_fd_sc_hd__o21ba_1
*I *1181:X O *D sky130_fd_sc_hd__clkbuf_4
*CAP
1 *1263:A1 0
2 *1227:A1 0.000497945
3 *1254:A1 0.000253545
4 *1245:A1 0.000137867
5 *1218:A1 0
6 *1209:A1 7.59523e-05
7 *1198:A1 0.000456736
8 *1236:A1 0
9 *1190:A 0.000189274
10 *1183:A1 0.00102769
11 *1181:X 0
12 *160:177 0.00292278
13 *160:154 0.00297905
14 *160:150 0.00154837
15 *160:113 0.00112946
16 *160:99 0.00064235
17 *160:97 0.00262621
18 *160:70 0.00200818
19 *160:45 0.00219835
20 *160:4 0.00273075
21 *1183:A1 *1183:A2 9.89891e-06
22 *1183:A1 *1185:A2 6.75922e-05
23 *1183:A1 *1473:CLK 0.000166388
24 *1183:A1 *329:105 7.75093e-05
25 *1183:A1 *437:42 5.08857e-05
26 *1183:A1 *512:21 6.68971e-06
27 *1183:A1 *512:44 4.48459e-05
28 *1183:A1 *512:48 1.43628e-05
29 *1183:A1 *512:59 4.18788e-05
30 *1190:A *165:38 0.000181835
31 *1190:A *165:63 8.43386e-05
32 *1190:A *166:10 0.000190738
33 *1190:A *278:53 0.000259313
34 *1190:A *434:10 0.00022118
35 *1190:A *434:12 0
36 *1198:A1 *1197:A 6.05161e-06
37 *1198:A1 *1198:A2 7.86973e-05
38 *1198:A1 *1198:B1 0
39 *1198:A1 *1212:B2 0
40 *1198:A1 *299:135 0.000167076
41 *1198:A1 *477:66 0
42 *1209:A1 *1209:A2 5.66472e-05
43 *1209:A1 *1518:CLK 2.12647e-05
44 *1227:A1 *1227:B1 5.33005e-05
45 *1227:A1 *378:14 0.000204704
46 *1245:A1 *1245:A2 7.44888e-05
47 *1245:A1 *176:77 5.02646e-05
48 *1254:A1 *1254:B1 4.18895e-05
49 *1254:A1 *1428:S 3.17148e-05
50 *1254:A1 *165:171 5.71472e-05
51 *1254:A1 *309:95 5.33005e-05
52 *1254:A1 *378:14 4.15183e-05
53 *1254:A1 *422:92 3.99248e-05
54 *160:45 *1189:A 5.46532e-05
55 *160:45 *1281:A1 0.000216141
56 *160:45 *1281:A2 0.000135028
57 *160:45 *1444:A1 9.13555e-05
58 *160:45 *167:6 1.32293e-05
59 *160:45 *167:122 0.000251297
60 *160:45 *172:24 0.000434108
61 *160:45 *175:14 3.36038e-05
62 *160:45 *309:10 0
63 *160:45 *330:50 0.000210288
64 *160:45 *330:65 0.000412762
65 *160:70 *1236:A2 0.00018372
66 *160:70 *1236:B1 1.40034e-05
67 *160:70 *1238:B1 1.04232e-05
68 *160:70 *166:10 0.000454177
69 *160:70 *278:53 0.000324241
70 *160:70 *299:14 6.22408e-05
71 *160:97 *1219:A1 0.00018077
72 *160:97 *1219:B2 0.000196374
73 *160:97 *1236:B1 1.72833e-05
74 *160:97 *1238:B1 5.19842e-06
75 *160:97 *1357:A0 7.59753e-06
76 *160:97 *1426:A0 1.97695e-05
77 *160:97 *1448:A0 7.6644e-05
78 *160:97 *1533:CLK 0.000497731
79 *160:97 *1553:A 0.000113136
80 *160:97 *1572:A 3.18676e-05
81 *160:97 *332:74 6.47499e-05
82 *160:97 *332:78 0.000338421
83 *160:99 *166:120 0.000100823
84 *160:99 *172:66 4.33438e-05
85 *160:113 *1209:A2 0.000146991
86 *160:113 *1518:CLK 0.000168969
87 *160:113 *165:139 0.000295712
88 *160:113 *166:120 0.000298196
89 *160:113 *299:135 0.000222085
90 *160:113 *332:86 9.43709e-05
91 *160:150 *1261:B1 0.000127888
92 *160:150 *1263:A2 2.89016e-05
93 *160:150 *1266:B2 0.000170182
94 *160:150 *1300:S 0.000333668
95 *160:150 *166:120 0.0003156
96 *160:150 *172:66 0.000272192
97 *160:150 *299:109 0.00146186
98 *160:150 *309:54 0
99 *160:150 *336:144 3.81416e-06
100 *160:150 *382:10 0.000125724
101 *160:150 *393:14 7.83659e-05
102 *160:150 *401:44 0
103 *160:154 *1263:B1 9.90431e-05
104 *160:154 *1265:B1 0.000140471
105 *160:154 *336:133 5.39629e-06
106 *160:154 *336:144 4.57413e-05
107 *160:177 *163:70 0.000194528
108 *160:177 *299:80 0.000759157
109 *160:177 *299:97 0.000245383
110 *160:177 *309:37 0.000149294
111 *160:177 *309:95 0.000152435
112 *1178:B *1183:A1 0.000182694
113 *1183:B1_N *1183:A1 0
114 *1188:A *160:45 0.000223675
115 *1454:D *160:150 3.84385e-05
116 *1463:D *160:113 7.74068e-05
117 *1473:RESET_B *1183:A1 0.000290003
118 *1520:D *160:154 9.82585e-06
119 *1525:D *160:97 1.76204e-05
120 *142:61 *160:45 9.35906e-05
121 *142:71 *160:45 2.34113e-05
122 *152:61 *160:45 8.43535e-06
123 *157:16 *1183:A1 0.000221143
124 *158:6 *1183:A1 5.52238e-05
125 *158:83 *1183:A1 0.000163455
*RES
1 *1181:X *160:4 9.3 
2 *160:4 *1183:A1 35.6036 
3 *160:4 *160:45 41.5179 
4 *160:45 *1190:A 20.4071 
5 *160:45 *160:70 13.7321 
6 *160:70 *1236:A1 9.3 
7 *160:70 *160:97 38.5893 
8 *160:97 *160:99 1.33929 
9 *160:99 *160:113 22.3393 
10 *160:113 *1198:A1 21.2643 
11 *160:113 *1209:A1 15.1571 
12 *160:99 *1218:A1 13.8 
13 *160:97 *160:150 30.5179 
14 *160:150 *160:154 12.8393 
15 *160:154 *1245:A1 15.9786 
16 *160:154 *160:177 11.8239 
17 *160:177 *1254:A1 17.3804 
18 *160:177 *1227:A1 21.3268 
19 *160:150 *1263:A1 9.3 
*END

*D_NET *161 0.00170456
*CONN
*I *1183:A2 I *D sky130_fd_sc_hd__o21ba_1
*I *1185:B1_N I *D sky130_fd_sc_hd__o21ba_1
*I *1182:X O *D sky130_fd_sc_hd__o2111a_1
*CAP
1 *1183:A2 0.000256846
2 *1185:B1_N 0.000292863
3 *1182:X 0
4 *161:6 0.000549709
5 *1183:A2 *444:10 0
6 *1185:B1_N *1185:A2 7.90021e-05
7 *1185:B1_N *268:26 5.81208e-05
8 *1185:B1_N *444:10 0
9 *1182:C1 *1183:A2 0.000200345
10 *1183:A1 *1183:A2 9.89891e-06
11 *1185:A1 *1185:B1_N 0.000194406
12 *152:95 *1185:B1_N 6.33738e-05
*RES
1 *1182:X *161:6 13.8 
2 *161:6 *1185:B1_N 19.8 
3 *161:6 *1183:A2 19.4071 
*END

*D_NET *162 0.00350618
*CONN
*I *1185:A2 I *D sky130_fd_sc_hd__o21ba_1
*I *1184:X O *D sky130_fd_sc_hd__o211a_1
*CAP
1 *1185:A2 0.000903784
2 *1184:X 0.000903784
3 *1185:A2 *1200:C 0.000139337
4 *1185:A2 *168:16 0.000306309
5 *1185:A2 *176:24 7.85037e-05
6 *1185:A2 *268:26 0.000473939
7 *1185:A2 *437:42 0.000142206
8 *1185:A2 *511:10 5.53232e-05
9 *1185:A2 *512:75 1.35553e-05
10 *1183:A1 *1185:A2 6.75922e-05
11 *1185:B1_N *1185:A2 7.90021e-05
12 *1192:C_N *1185:A2 5.33005e-05
13 *1195:A_N *1185:A2 0.000138631
14 *152:18 *1185:A2 2.12733e-05
15 *152:95 *1185:A2 0.000115809
16 *157:60 *1185:A2 1.38323e-05
*RES
1 *1184:X *1185:A2 44.6 
*END

*D_NET *163 0.0422025
*CONN
*I *1213:S I *D sky130_fd_sc_hd__mux2_1
*I *1204:S I *D sky130_fd_sc_hd__mux2_1
*I *1187:B I *D sky130_fd_sc_hd__xor2_1
*I *1249:S I *D sky130_fd_sc_hd__mux2_1
*I *1240:S I *D sky130_fd_sc_hd__mux2_1
*I *1267:S I *D sky130_fd_sc_hd__mux2_1
*I *1258:S I *D sky130_fd_sc_hd__mux2_1
*I *1231:S I *D sky130_fd_sc_hd__mux2_1
*I *1222:S I *D sky130_fd_sc_hd__mux2_1
*I *1186:X O *D sky130_fd_sc_hd__o21a_4
*CAP
1 *1213:S 0.00120866
2 *1204:S 6.23812e-05
3 *1187:B 0.000238034
4 *1249:S 1.20576e-05
5 *1240:S 0
6 *1267:S 0.000149167
7 *1258:S 0.00129943
8 *1231:S 2.30353e-05
9 *1222:S 0
10 *1186:X 0
11 *163:203 0.00258658
12 *163:191 0.00425563
13 *163:154 0.00385145
14 *163:86 0.00375508
15 *163:70 0.00471265
16 *163:45 0.00318859
17 *163:24 0.00130999
18 *163:14 0.0010501
19 *163:4 0.00116077
20 *1187:B *329:14 0.000268583
21 *1204:S *1204:A0 5.62995e-05
22 *1204:S *413:30 0.000203106
23 *1213:S *1204:A0 0.000271439
24 *1213:S *1213:A0 9.83388e-05
25 *1213:S *1302:A0 6.85372e-05
26 *1213:S *1589:A 3.32573e-06
27 *1213:S *254:129 0
28 *1213:S *331:114 0.000338425
29 *1213:S *331:133 0.000190412
30 *1213:S *413:30 6.59181e-05
31 *1213:S *488:16 1.33248e-05
32 *1249:S *1249:A1 1.04232e-05
33 *1249:S *1311:A 0
34 *1258:S *1259:A 9.83442e-05
35 *1258:S *1291:A 0
36 *1258:S *1339:S 0.000169902
37 *1258:S *1340:A 8.80099e-05
38 *1258:S *1485:CLK 4.94673e-05
39 *1258:S *299:109 0
40 *1258:S *466:35 0.000220291
41 *1267:S *1266:A1 8.13683e-05
42 *1267:S *1267:A1 0.000286962
43 *163:14 *1249:A1 7.77561e-05
44 *163:14 *1283:B 0.000203161
45 *163:14 *1311:A 0.000172309
46 *163:14 *254:29 0
47 *163:14 *348:8 6.23058e-05
48 *163:24 *1222:A1 5.54817e-06
49 *163:24 *1249:A1 2.62395e-05
50 *163:24 *1250:A 0
51 *163:24 *1311:A 1.24368e-05
52 *163:24 *254:46 0.000512566
53 *163:24 *418:12 0.000129868
54 *163:24 *430:33 0
55 *163:45 *1222:A0 9.41642e-05
56 *163:45 *1231:A0 2.89114e-05
57 *163:45 *1232:A 0
58 *163:45 *1355:S 0.00015577
59 *163:45 *1356:A 6.24558e-05
60 *163:45 *1640:A 0
61 *163:45 *203:12 0.000311967
62 *163:45 *333:20 0.000326685
63 *163:45 *455:10 0
64 *163:70 *1240:A0 5.33334e-05
65 *163:70 *1467:CLK 1.90936e-05
66 *163:70 *167:65 0
67 *163:70 *254:82 0.000217842
68 *163:70 *299:22 2.05413e-05
69 *163:70 *299:46 5.03772e-05
70 *163:70 *336:12 3.23542e-05
71 *163:86 *1240:A1 7.2754e-05
72 *163:86 *1266:A1 0.000139685
73 *163:86 *1266:A2 0.0001863
74 *163:86 *1266:B1 8.58496e-05
75 *163:86 *1267:A1 0.000401696
76 *163:86 *1383:A1 1.57931e-05
77 *163:86 *1406:A1 2.16162e-05
78 *163:86 *299:22 4.94362e-05
79 *163:86 *336:6 0.000315165
80 *163:86 *336:34 0.000718074
81 *163:86 *336:40 9.33252e-05
82 *163:86 *339:14 0.000137983
83 *163:154 *1182:A2 0.000225848
84 *163:154 *1186:B1 7.96976e-05
85 *163:154 *1283:B 0.000312996
86 *163:154 *444:31 0.000262581
87 *163:154 *512:12 0.000217877
88 *163:191 *1318:A 9.31209e-05
89 *163:191 *1437:A 0.000335874
90 *163:191 *238:16 0.000414275
91 *163:191 *258:40 1.90936e-05
92 *163:203 *1203:B1 0.000565586
93 *163:203 *1206:B1 0.000143201
94 *163:203 *1206:B2 0.000170163
95 *163:203 *1487:CLK 6.35117e-05
96 *163:203 *1578:A 5.86416e-05
97 *163:203 *268:86 0
98 *163:203 *331:38 1.92384e-05
99 *163:203 *352:12 3.91192e-05
100 *163:203 *413:30 0.00036326
101 *1156:B *163:191 2.13481e-06
102 *1156:D *163:191 0.000614609
103 *1179:A1 *1187:B 5.01213e-05
104 *1179:A1 *163:154 0.000184282
105 *1186:A1 *163:154 8.25843e-06
106 *1187:A *1187:B 5.68722e-05
107 *1191:C *163:154 0.000142351
108 *1460:D *1213:S 0.000127294
109 *1468:RESET_B *163:45 0
110 *1470:D *1213:S 6.95409e-05
111 *1472:D *1187:B 0.000102362
112 *1480:D *1258:S 4.43184e-05
113 *1485:D *1258:S 8.25843e-06
114 *1489:D *163:24 0
115 *1492:D *163:45 0
116 *1503:D *163:203 5.91935e-05
117 *1508:D *163:45 0.000122933
118 *1537:A *163:191 0
119 *140:8 *163:191 9.14771e-06
120 *142:73 *163:154 4.94403e-05
121 *157:10 *1187:B 4.78056e-05
122 *157:10 *163:154 0.000227569
123 *157:45 *163:154 0.000261478
124 *157:56 *163:154 6.78841e-05
125 *159:14 *1187:B 0.000108534
126 *160:177 *163:70 0.000194528
*RES
1 *1186:X *163:4 9.3 
2 *163:4 *163:14 19.2679 
3 *163:14 *163:24 22.3393 
4 *163:24 *1222:S 9.3 
5 *163:24 *163:45 25.9286 
6 *163:45 *1231:S 9.72857 
7 *163:45 *163:70 23.7274 
8 *163:70 *163:86 44.2143 
9 *163:86 *1258:S 49.05 
10 *163:86 *1267:S 22.425 
11 *163:70 *1240:S 9.3 
12 *163:14 *1249:S 9.72857 
13 *163:4 *163:154 24.5 
14 *163:154 *1187:B 20.2286 
15 *163:154 *163:191 49.2892 
16 *163:191 *163:203 33.25 
17 *163:203 *1204:S 11.6929 
18 *163:203 *1213:S 46.2464 
*END

*D_NET *164 0.000185618
*CONN
*I *1189:A I *D sky130_fd_sc_hd__clkbuf_4
*I *1188:X O *D sky130_fd_sc_hd__or2_1
*CAP
1 *1189:A 1.54642e-05
2 *1188:X 1.54642e-05
3 *142:61 *1189:A 4.33899e-05
4 *142:71 *1189:A 5.6647e-05
5 *160:45 *1189:A 5.46532e-05
*RES
1 *1188:X *1189:A 19.5464 
*END

*D_NET *165 0.0275944
*CONN
*I *1254:B1 I *D sky130_fd_sc_hd__a21oi_1
*I *1227:B1 I *D sky130_fd_sc_hd__a21oi_1
*I *1209:B1 I *D sky130_fd_sc_hd__a21oi_1
*I *1198:B1 I *D sky130_fd_sc_hd__a21oi_1
*I *1218:B1 I *D sky130_fd_sc_hd__a21oi_1
*I *1263:B1 I *D sky130_fd_sc_hd__a21oi_1
*I *1245:B1 I *D sky130_fd_sc_hd__a21oi_1
*I *1236:B1 I *D sky130_fd_sc_hd__a21oi_1
*I *1190:B I *D sky130_fd_sc_hd__or2_4
*I *1189:X O *D sky130_fd_sc_hd__clkbuf_4
*CAP
1 *1254:B1 1.91064e-05
2 *1227:B1 0.000247536
3 *1209:B1 8.92502e-05
4 *1198:B1 0.000239824
5 *1218:B1 0
6 *1263:B1 0.000132326
7 *1245:B1 0.000450201
8 *1236:B1 0.000335961
9 *1190:B 0
10 *1189:X 2.84971e-05
11 *165:171 0.00148182
12 *165:139 0.000889779
13 *165:120 0.000628286
14 *165:90 0.00156754
15 *165:82 0.00206369
16 *165:63 0.00218538
17 *165:38 0.00204403
18 *165:8 0.00244939
19 *1198:B1 *1212:B2 0.000110348
20 *1209:B1 *1211:B1 1.59373e-05
21 *1209:B1 *1211:C1 6.51675e-05
22 *1227:B1 *1229:B1 0.000100823
23 *1227:B1 *1229:C1 7.83366e-05
24 *1227:B1 *1428:A0 3.28804e-05
25 *1227:B1 *381:12 0.00012401
26 *1227:B1 *422:50 5.83304e-05
27 *1236:B1 *1238:B1 6.30744e-05
28 *1236:B1 *1533:CLK 9.70743e-05
29 *1245:B1 *1245:A2 3.71423e-05
30 *1245:B1 *1247:B1 5.30637e-06
31 *1245:B1 *1420:A0 2.28499e-05
32 *1245:B1 *1421:A 3.18676e-05
33 *1245:B1 *309:37 7.61932e-05
34 *1245:B1 *309:54 7.77652e-05
35 *1245:B1 *401:44 0.000184745
36 *1254:B1 *422:30 1.58163e-05
37 *1263:B1 *1265:B1 9.90431e-05
38 *1263:B1 *1266:B2 0
39 *1263:B1 *1420:A0 4.60554e-05
40 *165:38 *1184:A2 0.000362278
41 *165:38 *1281:A2 0.000352379
42 *165:38 *1285:A1 0.000205884
43 *165:38 *1285:A2 0.000151947
44 *165:38 *1536:A 0.000191447
45 *165:38 *166:10 0.000104397
46 *165:38 *176:24 0.000607932
47 *165:38 *434:10 0.000198808
48 *165:63 *1270:A1 0.000338077
49 *165:63 *1448:A0 0.000188612
50 *165:63 *1451:A 0.000291468
51 *165:63 *166:10 0.000141036
52 *165:63 *166:76 0.000128706
53 *165:63 *172:26 0
54 *165:63 *175:33 1.477e-05
55 *165:63 *175:50 2.02794e-05
56 *165:63 *268:86 0
57 *165:63 *328:36 6.42122e-06
58 *165:63 *434:12 0
59 *165:82 *1431:A 5.71472e-05
60 *165:82 *1533:CLK 8.62823e-05
61 *165:82 *332:46 1.68914e-05
62 *165:82 *466:47 0.000575092
63 *165:90 *1215:A1 2.44996e-05
64 *165:90 *1219:A1 0
65 *165:90 *1221:B2 0
66 *165:90 *1260:B2 0
67 *165:90 *1266:B2 0
68 *165:90 *1290:A0 0.00026456
69 *165:90 *1290:A1 0.000144132
70 *165:90 *1393:A1 7.83659e-05
71 *165:90 *1431:A 0.000171577
72 *165:90 *1465:CLK 5.00723e-05
73 *165:90 *1567:A 0
74 *165:90 *309:54 0.000900319
75 *165:90 *335:106 3.17297e-05
76 *165:90 *401:54 0
77 *165:120 *1430:A0 0.000224583
78 *165:120 *466:43 0.00018077
79 *165:120 *466:47 8.76257e-05
80 *165:139 *1211:A1 4.49856e-05
81 *165:139 *1430:A0 5.33005e-05
82 *165:139 *1432:A0 7.89362e-05
83 *165:139 *1518:CLK 0
84 *165:139 *1579:A 4.82354e-05
85 *165:139 *166:120 6.32453e-05
86 *165:139 *172:66 0.00036456
87 *165:139 *299:135 5.71124e-05
88 *165:139 *466:43 4.08637e-05
89 *165:171 *1184:A2 9.95963e-05
90 *165:171 *1227:A2 0
91 *165:171 *1234:B1 7.79781e-06
92 *165:171 *1254:A2 1.33343e-05
93 *165:171 *1296:A0 7.83659e-05
94 *165:171 *1298:A1 0.000149793
95 *165:171 *1332:A 5.7173e-05
96 *165:171 *1422:S 0
97 *165:171 *1428:A0 7.83659e-05
98 *165:171 *1483:CLK 0
99 *165:171 *245:33 0.000647644
100 *165:171 *258:60 0
101 *165:171 *330:50 0
102 *165:171 *422:30 3.14078e-05
103 *165:171 *422:50 5.46492e-05
104 *165:171 *437:89 5.70945e-05
105 *165:171 *437:112 0.00116593
106 *165:171 *437:122 9.99444e-06
107 *165:171 *455:50 0.000231692
108 *165:171 *455:74 0.000330455
109 *165:171 *455:78 1.7606e-05
110 *1190:A *165:38 0.000181835
111 *1190:A *165:63 8.43386e-05
112 *1198:A1 *1198:B1 0
113 *1227:A1 *1227:B1 5.33005e-05
114 *1254:A1 *1254:B1 4.18895e-05
115 *1254:A1 *165:171 5.71472e-05
116 *1459:D *165:90 0.000146991
117 *1481:D *165:171 0.000195263
118 *1483:D *165:171 0
119 *1501:D *165:82 2.53061e-05
120 *1515:D *165:171 0
121 *1533:D *1236:B1 4.87669e-06
122 *1533:D *165:63 0
123 *1534:D *165:63 0.000101227
124 *142:40 *165:38 0
125 *142:61 *165:8 5.50052e-05
126 *158:158 *165:90 4.55036e-05
127 *160:70 *1236:B1 1.40034e-05
128 *160:97 *1236:B1 1.72833e-05
129 *160:113 *165:139 0.000295712
130 *160:154 *1263:B1 9.90431e-05
*RES
1 *1189:X *165:8 14.3357 
2 *165:8 *165:38 32.0179 
3 *165:38 *1190:B 9.3 
4 *165:38 *165:63 30.8 
5 *165:63 *1236:B1 14.4071 
6 *165:63 *165:82 15.1429 
7 *165:82 *165:90 29.2679 
8 *165:90 *1245:B1 23.4429 
9 *165:90 *1263:B1 16.6929 
10 *165:82 *165:120 2.58929 
11 *165:120 *1218:B1 9.3 
12 *165:120 *165:139 24.9643 
13 *165:139 *1198:B1 18.175 
14 *165:139 *1209:B1 15.175 
15 *165:8 *165:171 37.0179 
16 *165:171 *1227:B1 23.8179 
17 *165:171 *1254:B1 9.83571 
*END

*D_NET *166 0.0246699
*CONN
*I *1266:A2 I *D sky130_fd_sc_hd__o22a_1
*I *1221:A2 I *D sky130_fd_sc_hd__o22a_1
*I *1203:A2 I *D sky130_fd_sc_hd__o22a_1
*I *1212:A2 I *D sky130_fd_sc_hd__o22a_1
*I *1248:A2 I *D sky130_fd_sc_hd__o22a_1
*I *1230:A2 I *D sky130_fd_sc_hd__o22a_1
*I *1257:A2 I *D sky130_fd_sc_hd__o22a_1
*I *1239:A2 I *D sky130_fd_sc_hd__o22a_1
*I *1190:X O *D sky130_fd_sc_hd__or2_4
*CAP
1 *1266:A2 0.000468294
2 *1221:A2 0.000116893
3 *1203:A2 7.60848e-05
4 *1212:A2 0.000234766
5 *1248:A2 0.00043941
6 *1230:A2 0.000789921
7 *1257:A2 0.000193036
8 *1239:A2 0.000206313
9 *1190:X 0
10 *166:120 0.00175159
11 *166:78 0.000521235
12 *166:76 0.00285301
13 *166:25 0.00164568
14 *166:21 0.00115642
15 *166:10 0.00103104
16 *166:4 0.00224667
17 *1203:A2 *488:26 6.48285e-05
18 *1212:A2 *1212:B2 0.000387425
19 *1212:A2 *1343:A0 0
20 *1212:A2 *1434:A0 0
21 *1221:A2 *1301:A 0.000170026
22 *1221:A2 *335:106 6.93626e-06
23 *1230:A2 *1230:A1 1.25116e-05
24 *1230:A2 *1257:B2 0.000152866
25 *1230:A2 *1332:A 4.5632e-05
26 *1230:A2 *219:12 0
27 *1230:A2 *258:60 0
28 *1239:A2 *335:27 0.000315158
29 *1248:A2 *1243:B1 5.36098e-05
30 *1248:A2 *1248:B1 2.56694e-05
31 *1248:A2 *1334:A 1.02504e-05
32 *1248:A2 *1545:A 0.000351902
33 *1248:A2 *278:61 0
34 *1248:A2 *438:96 0.000120738
35 *1257:A2 *1257:B1 0.000141133
36 *1257:A2 *227:8 5.52238e-05
37 *1266:A2 *1260:A1 0
38 *1266:A2 *1260:B2 3.11713e-05
39 *1266:A2 *1266:A1 2.89114e-05
40 *1266:A2 *1347:A0 0
41 *1266:A2 *1597:A 0
42 *1266:A2 *175:74 0
43 *1266:A2 *335:106 6.14702e-06
44 *1266:A2 *401:54 0.000455858
45 *166:10 *1238:C1 0.000255775
46 *166:10 *1426:A0 4.15914e-05
47 *166:10 *1427:A 0.000511908
48 *166:10 *1545:A 1.437e-05
49 *166:10 *176:34 0.000192013
50 *166:10 *278:61 0
51 *166:10 *299:14 7.79781e-06
52 *166:10 *328:10 6.42338e-05
53 *166:10 *328:75 4.52365e-05
54 *166:21 *1545:A 3.69697e-05
55 *166:25 *227:8 0.00099952
56 *166:76 *1210:A1 5.04735e-05
57 *166:76 *1270:A1 0.00011307
58 *166:76 *1377:A0 9.58632e-05
59 *166:76 *1451:A 1.8773e-05
60 *166:76 *1502:CLK 0.000342325
61 *166:76 *1568:A 0.000167666
62 *166:76 *477:83 0.000139338
63 *166:78 *1202:A2 0.000125434
64 *166:78 *1212:B2 0.000555667
65 *166:78 *1434:A0 0
66 *166:78 *384:10 0.00010326
67 *166:120 *1202:A2 6.26782e-05
68 *166:120 *1211:A1 0.000170372
69 *166:120 *1212:B2 9.72196e-05
70 *166:120 *1220:A1 2.42516e-05
71 *166:120 *1260:B2 9.84729e-05
72 *166:120 *1261:B1 0.000305961
73 *166:120 *1290:A0 0.000136727
74 *166:120 *1300:A0 0.000148189
75 *166:120 *1300:S 0.000201633
76 *166:120 *1430:A0 0.000270243
77 *166:120 *1562:A 1.58163e-05
78 *166:120 *172:66 0.000138891
79 *166:120 *299:109 0.000101145
80 *166:120 *309:54 0.000473937
81 *166:120 *332:86 0.000125949
82 *166:120 *382:10 0.000125724
83 *1190:A *166:10 0.000190738
84 *1481:D *1230:A2 9.77627e-05
85 *1506:D *1230:A2 4.40806e-05
86 *160:70 *166:10 0.000454177
87 *160:99 *166:120 0.000100823
88 *160:113 *166:120 0.000298196
89 *160:150 *166:120 0.0003156
90 *163:86 *1266:A2 0.0001863
91 *165:38 *166:10 0.000104397
92 *165:63 *166:10 0.000141036
93 *165:63 *166:76 0.000128706
94 *165:139 *166:120 6.32453e-05
*RES
1 *1190:X *166:4 9.3 
2 *166:4 *166:10 24.2143 
3 *166:10 *1239:A2 16.8 
4 *166:10 *166:21 1.03571 
5 *166:21 *166:25 14.0714 
6 *166:25 *1257:A2 11.8893 
7 *166:25 *1230:A2 30.9607 
8 *166:21 *1248:A2 23.6393 
9 *166:4 *166:76 28.0357 
10 *166:76 *166:78 7.10714 
11 *166:78 *1212:A2 18.7821 
12 *166:78 *1203:A2 14.7464 
13 *166:76 *166:120 49.4464 
14 *166:120 *1221:A2 16.3536 
15 *166:120 *1266:A2 24.3179 
*END

*D_NET *167 0.026532
*CONN
*I *1206:A2 I *D sky130_fd_sc_hd__a22o_1
*I *1193:A2 I *D sky130_fd_sc_hd__a22o_1
*I *1215:A2 I *D sky130_fd_sc_hd__a22o_1
*I *1260:A2 I *D sky130_fd_sc_hd__a22o_1
*I *1242:A2 I *D sky130_fd_sc_hd__a22o_1
*I *1224:A2 I *D sky130_fd_sc_hd__a22o_1
*I *1251:A2 I *D sky130_fd_sc_hd__a22o_1
*I *1233:A2 I *D sky130_fd_sc_hd__a22o_1
*I *1191:X O *D sky130_fd_sc_hd__and3b_4
*CAP
1 *1206:A2 0.000271297
2 *1193:A2 0
3 *1215:A2 0.000427039
4 *1260:A2 0
5 *1242:A2 7.22486e-05
6 *1224:A2 2.31336e-05
7 *1251:A2 0.000118527
8 *1233:A2 0
9 *1191:X 8.23692e-05
10 *167:142 0.00176763
11 *167:122 0.00275988
12 *167:84 0.00135112
13 *167:65 0.00301189
14 *167:38 0.0023932
15 *167:25 0.000856382
16 *167:10 0.000680595
17 *167:6 0.00164317
18 *1206:A2 *1204:A1 0
19 *1206:A2 *1302:S 4.24291e-05
20 *1206:A2 *1360:A 7.89362e-05
21 *1206:A2 *1395:A0 3.76327e-05
22 *1206:A2 *1487:CLK 4.35793e-05
23 *1206:A2 *1581:A 5.56636e-05
24 *1206:A2 *331:36 1.6163e-05
25 *1206:A2 *331:38 1.6806e-05
26 *1215:A2 *1215:A1 2.97021e-05
27 *1215:A2 *1215:B1 0.00010096
28 *1215:A2 *1221:B2 7.54369e-06
29 *1215:A2 *1222:A1 0.000145344
30 *1215:A2 *1260:A1 0.000136733
31 *1215:A2 *1260:B2 4.11486e-05
32 *1215:A2 *1261:B1 0.000137639
33 *1215:A2 *1393:S 9.7455e-05
34 *1215:A2 *1465:CLK 1.3701e-05
35 *1215:A2 *227:8 9.22103e-06
36 *1215:A2 *245:102 3.69588e-05
37 *1224:A2 *1484:CLK 1.02504e-05
38 *1224:A2 *438:42 1.02969e-05
39 *1242:A2 *1242:A1 0
40 *1242:A2 *1243:B1 1.98839e-05
41 *1242:A2 *438:96 0.000120501
42 *1251:A2 *1251:B1 0.000183711
43 *1251:A2 *438:42 8.43386e-05
44 *167:6 *1181:A 0.000140243
45 *167:10 *288:68 0
46 *167:10 *437:42 6.95022e-05
47 *167:10 *438:10 3.84385e-05
48 *167:10 *444:46 3.34366e-05
49 *167:10 *512:59 8.67814e-06
50 *167:25 *1554:A 0.000153054
51 *167:25 *438:23 0.00030585
52 *167:25 *444:46 0.000162832
53 *167:38 *1225:A1 7.74068e-05
54 *167:38 *1225:B1 0.000163084
55 *167:38 *288:100 6.05161e-06
56 *167:38 *333:10 2.12647e-05
57 *167:38 *333:91 4.37451e-05
58 *167:38 *438:42 0.000154582
59 *167:65 *1222:A1 0
60 *167:65 *1242:A1 5.33005e-05
61 *167:65 *1248:B1 0.00010096
62 *167:65 *1257:B2 0
63 *167:65 *1352:A 7.83659e-05
64 *167:65 *1490:CLK 0.000107985
65 *167:65 *347:8 0.00014285
66 *167:65 *438:75 0.000120579
67 *167:65 *438:96 1.44983e-05
68 *167:84 *1215:B1 4.6025e-06
69 *167:84 *1243:B1 8.25843e-06
70 *167:84 *1347:S 0.000369736
71 *167:84 *1348:A 0.000261839
72 *167:84 *1383:A0 4.70078e-05
73 *167:84 *1383:S 0
74 *167:84 *176:77 0.000164145
75 *167:122 *1154:A 6.76823e-05
76 *167:122 *1155:A_N 0.000259888
77 *167:122 *1181:A 0.000140243
78 *167:122 *1363:A_N 5.33005e-05
79 *167:122 *168:30 0.00029008
80 *167:122 *238:10 0.00011489
81 *167:122 *245:20 0.000264168
82 *167:122 *510:19 0.000789489
83 *167:142 *1194:A1 7.14196e-06
84 *167:142 *1204:A1 0
85 *167:142 *1487:CLK 9.10625e-05
86 *167:142 *1540:A 9.87983e-06
87 *167:142 *1578:A 2.27416e-05
88 *167:142 *488:51 7.99946e-05
89 *167:142 *488:61 0.000323078
90 *1157:A *167:122 3.50409e-05
91 *1207:A2 *167:142 7.7773e-05
92 *1243:A2 *167:84 2.59355e-05
93 *1275:B *167:122 5.52302e-05
94 *1488:D *167:84 5.65955e-05
95 *139:14 *167:122 0.000272597
96 *142:132 *1224:A2 0
97 *142:132 *167:38 0
98 *152:18 *167:122 0.000144904
99 *152:46 *167:122 0.000203342
100 *152:61 *167:6 1.98839e-05
101 *152:61 *167:122 5.96516e-05
102 *158:45 *167:122 0.000221841
103 *158:45 *167:142 0.00138171
104 *158:83 *167:10 0
105 *158:83 *167:25 0
106 *158:83 *167:122 0.000578566
107 *158:91 *167:25 0.000548156
108 *158:102 *167:25 8.24605e-05
109 *158:102 *167:38 0.000107399
110 *158:135 *167:65 9.5403e-05
111 *160:45 *167:6 1.32293e-05
112 *160:45 *167:122 0.000251297
113 *163:70 *167:65 0
*RES
1 *1191:X *167:6 11.0679 
2 *167:6 *167:10 9.78571 
3 *167:10 *1233:A2 13.8 
4 *167:10 *167:25 17.125 
5 *167:25 *1251:A2 11.8893 
6 *167:25 *167:38 13.5268 
7 *167:38 *1224:A2 14.3804 
8 *167:38 *167:65 25.6304 
9 *167:65 *1242:A2 11.5946 
10 *167:65 *167:84 26.0714 
11 *167:84 *1260:A2 9.3 
12 *167:84 *1215:A2 27.3536 
13 *167:6 *167:122 42.4821 
14 *167:122 *167:142 38.9821 
15 *167:142 *1193:A2 13.8 
16 *167:142 *1206:A2 19.9786 
*END

*D_NET *168 0.0133949
*CONN
*I *1632:A I *D sky130_fd_sc_hd__clkbuf_2
*I *1193:B1 I *D sky130_fd_sc_hd__a22o_1
*I *1206:B1 I *D sky130_fd_sc_hd__a22o_1
*I *1192:Y O *D sky130_fd_sc_hd__nor3b_2
*CAP
1 *1632:A 0.000162465
2 *1193:B1 2.88432e-05
3 *1206:B1 0.000236517
4 *1192:Y 0.000147152
5 *168:38 0.000555035
6 *168:30 0.00204836
7 *168:16 0.0020683
8 *1193:B1 *1193:A1 1.98839e-05
9 *1193:B1 *258:14 5.33005e-05
10 *1206:B1 *1206:B2 0.000170755
11 *1206:B1 *1360:A 1.21258e-05
12 *1206:B1 *1487:CLK 0.000163744
13 *1206:B1 *331:36 0.000205013
14 *1206:B1 *331:38 8.11955e-05
15 *1206:B1 *331:105 6.05161e-06
16 *1632:A *1283:C 5.33005e-05
17 *1632:A *437:42 0.00031563
18 *1632:A *437:81 1.58163e-05
19 *168:16 *1196:A 3.50746e-05
20 *168:16 *268:18 0.000101619
21 *168:16 *288:68 0.000101619
22 *168:30 *1152:B 0
23 *168:30 *1155:A_N 0.000396686
24 *168:30 *1155:B 9.60875e-05
25 *168:30 *1177:A 0.00012401
26 *168:30 *1327:A 5.52302e-05
27 *168:30 *1327:B 4.88637e-05
28 *168:30 *1328:A 1.72894e-05
29 *168:30 *245:20 0
30 *168:30 *258:14 0.000333419
31 *168:30 *331:8 0.000580978
32 *168:30 *437:42 0.00108452
33 *168:38 *1193:A1 0.000132974
34 *168:38 *1193:B2 0.000183726
35 *168:38 *1361:A0 0.000121598
36 *168:38 *1361:A1 5.52302e-05
37 *168:38 *1361:S 0.00031155
38 *168:38 *258:14 0.000383695
39 *1175:A1 *168:30 1.39841e-05
40 *1175:A2 *168:30 0.000447821
41 *1175:B1 *168:30 0.000195388
42 *1176:B *168:30 0.000313461
43 *1185:A2 *168:16 0.000306309
44 *1195:A_N *168:16 3.97677e-05
45 *157:60 *168:16 0.000349777
46 *157:69 *168:16 4.08637e-05
47 *158:83 *1632:A 0.000326311
48 *158:83 *168:30 0.000420224
49 *163:203 *1206:B1 0.000143201
50 *167:122 *168:30 0.00029008
*RES
1 *1192:Y *168:16 28.3893 
2 *168:16 *168:30 49.5804 
3 *168:30 *168:38 9.11607 
4 *168:38 *1206:B1 25.1571 
5 *168:38 *1193:B1 10.2643 
6 *168:16 *1632:A 18.7107 
*END

*D_NET *169 0.00242065
*CONN
*I *1194:B1 I *D sky130_fd_sc_hd__a21o_1
*I *1193:X O *D sky130_fd_sc_hd__a22o_1
*CAP
1 *1194:B1 0.000650693
2 *1193:X 0.000650693
3 *1194:B1 *1194:A1 0.000148189
4 *1194:B1 *258:14 0.000870244
5 *1194:B1 *435:52 0
6 *1194:B1 *488:61 0.000100831
*RES
1 *1193:X *1194:B1 37.8857 
*END

*D_NET *170 0.00376931
*CONN
*I *1203:B1 I *D sky130_fd_sc_hd__o22a_1
*I *1194:X O *D sky130_fd_sc_hd__a21o_1
*CAP
1 *1203:B1 0.000696906
2 *1194:X 0.000696906
3 *1203:B1 *1201:A1 0.000269428
4 *1203:B1 *1203:B2 8.37187e-05
5 *1203:B1 *1204:A1 0.000531273
6 *1203:B1 *1379:A0 0.000159855
7 *1203:B1 *1434:A0 0.000188586
8 *1203:B1 *1435:A 0.000210994
9 *1203:B1 *360:6 0.00018077
10 *1203:B1 *488:26 1.40034e-05
11 *1203:B1 *488:32 0.000119203
12 *1207:A2 *1203:B1 5.20751e-05
13 *163:203 *1203:B1 0.000565586
*RES
1 *1194:X *1203:B1 46.475 
*END

*D_NET *171 0.0013395
*CONN
*I *1196:A I *D sky130_fd_sc_hd__buf_2
*I *1195:X O *D sky130_fd_sc_hd__and3b_1
*CAP
1 *1196:A 0.000341543
2 *1195:X 0.000341543
3 *1196:A *172:24 1.80261e-05
4 *1196:A *175:14 2.59355e-05
5 *1196:A *512:82 1.21258e-05
6 *1184:B1 *1196:A 6.87966e-05
7 *1195:A_N *1196:A 5.33005e-05
8 *152:24 *1196:A 5.33005e-05
9 *157:69 *1196:A 0.000109448
10 *157:75 *1196:A 0.000140243
11 *157:86 *1196:A 0.000140166
12 *168:16 *1196:A 3.50746e-05
*RES
1 *1195:X *1196:A 26.1536 
*END

*D_NET *172 0.0242426
*CONN
*I *1247:A2 I *D sky130_fd_sc_hd__a211o_1
*I *1265:A2 I *D sky130_fd_sc_hd__a211o_1
*I *1256:A2 I *D sky130_fd_sc_hd__a211o_1
*I *1229:A2 I *D sky130_fd_sc_hd__a211o_1
*I *1211:A2 I *D sky130_fd_sc_hd__a211o_1
*I *1202:A2 I *D sky130_fd_sc_hd__a211o_1
*I *1220:A2 I *D sky130_fd_sc_hd__a211o_1
*I *1238:A2 I *D sky130_fd_sc_hd__a211o_1
*I *1196:X O *D sky130_fd_sc_hd__buf_2
*CAP
1 *1247:A2 0
2 *1265:A2 0.00127453
3 *1256:A2 3.57917e-05
4 *1229:A2 0.000559686
5 *1211:A2 3.96723e-05
6 *1202:A2 0.000260434
7 *1220:A2 0
8 *1238:A2 1.23255e-05
9 *1196:X 0.00118328
10 *172:110 0.00119061
11 *172:108 0.00214645
12 *172:98 0.00113866
13 *172:66 0.00080057
14 *172:53 0.00122694
15 *172:28 0.000738806
16 *172:26 0.00140532
17 *172:24 0.00172673
18 *1202:A2 *1202:A1 0.000229456
19 *1202:A2 *1202:B1 0.000227532
20 *1202:A2 *1434:S 0
21 *1202:A2 *477:83 7.58841e-05
22 *1211:A2 *1211:C1 0.000139344
23 *1211:A2 *1432:A0 6.96806e-05
24 *1229:A2 *1229:A1 0.000301184
25 *1229:A2 *1256:A1 6.92232e-05
26 *1229:A2 *1422:A0 9.41642e-05
27 *1229:A2 *1601:A 0.000170161
28 *1229:A2 *378:14 0.000228514
29 *1229:A2 *422:30 6.27892e-05
30 *1238:A2 *425:22 8.58577e-06
31 *1256:A2 *1256:A1 1.04232e-05
32 *1265:A2 *1265:A1 2.97137e-05
33 *1265:A2 *1265:B1 4.47562e-05
34 *1265:A2 *1265:C1 2.07382e-05
35 *1265:A2 *1406:A0 0.000136958
36 *1265:A2 *1522:CLK 0.000267731
37 *1265:A2 *1582:A 5.70296e-05
38 *1265:A2 *1608:A 9.90431e-05
39 *1265:A2 *379:6 1.13406e-05
40 *172:24 *1238:C1 9.58632e-05
41 *172:24 *1444:A0 4.27842e-06
42 *172:24 *1531:CLK 1.02301e-05
43 *172:24 *175:14 0.000902524
44 *172:24 *175:33 0.000160363
45 *172:24 *309:10 2.73164e-05
46 *172:26 *1237:A1 9.20396e-05
47 *172:26 *1238:A1 0.000175526
48 *172:26 *1238:B1 0.000130277
49 *172:26 *1448:A0 0
50 *172:26 *1612:A 6.45442e-05
51 *172:26 *434:12 6.63361e-05
52 *172:53 *1220:A1 3.57366e-05
53 *172:53 *1221:B2 0.000156818
54 *172:53 *1239:B2 9.90431e-05
55 *172:53 *1357:A1 0.000655282
56 *172:53 *1358:A 6.19799e-05
57 *172:53 *1393:A1 0.000169904
58 *172:53 *1394:A 9.80173e-05
59 *172:53 *425:22 0.00062905
60 *172:66 *1211:C1 0.000124012
61 *172:66 *1220:A1 9.89764e-05
62 *172:66 *1220:B1 0.000131321
63 *172:66 *1220:C1 0.000148196
64 *172:66 *1221:B2 1.40034e-05
65 *172:66 *309:54 7.79781e-06
66 *172:66 *309:56 0.000146002
67 *172:66 *425:22 1.21289e-05
68 *172:98 *1247:A1 8.6229e-06
69 *172:98 *1294:A1 6.6717e-05
70 *172:98 *1295:A 0.000118172
71 *172:98 *1544:A 0
72 *172:98 *254:109 2.09897e-05
73 *172:98 *328:20 0
74 *172:98 *433:20 7.46439e-05
75 *172:98 *433:22 4.53031e-05
76 *172:98 *434:12 0.000800027
77 *172:108 *1618:A 3.17377e-05
78 *172:108 *254:109 4.87854e-05
79 *172:108 *278:61 0
80 *172:108 *434:12 0.000307269
81 *172:110 *1256:A1 2.27416e-05
82 *172:110 *1256:B1 2.59355e-05
83 *172:110 *1256:C1 0.000349482
84 *172:110 *379:6 2.51343e-06
85 *1184:B1 *172:24 6.05161e-06
86 *1196:A *172:24 1.80261e-05
87 *1456:D *172:98 0.000328239
88 *1493:D *172:98 0
89 *1522:D *1265:A2 6.11788e-06
90 *1531:D *172:24 5.66971e-05
91 *1533:D *172:26 5.16759e-05
92 *160:45 *172:24 0.000434108
93 *160:99 *172:66 4.33438e-05
94 *160:150 *172:66 0.000272192
95 *165:63 *172:26 0
96 *165:139 *172:66 0.00036456
97 *166:78 *1202:A2 0.000125434
98 *166:120 *1202:A2 6.26782e-05
99 *166:120 *172:66 0.000138891
*RES
1 *1196:X *172:24 44.8893 
2 *172:24 *172:26 11.6607 
3 *172:26 *172:28 4.5 
4 *172:28 *1238:A2 9.63036 
5 *172:28 *172:53 19.4643 
6 *172:53 *1220:A2 9.3 
7 *172:53 *172:66 19.9821 
8 *172:66 *1202:A2 20.9607 
9 *172:66 *1211:A2 15.1571 
10 *172:26 *172:98 25.375 
11 *172:98 *172:108 14.4464 
12 *172:108 *172:110 10.8036 
13 *172:110 *1229:A2 20.0143 
14 *172:110 *1256:A2 10.0321 
15 *172:108 *1265:A2 27.9786 
16 *172:98 *1247:A2 9.3 
*END

*D_NET *173 0.00018089
*CONN
*I *1198:A2 I *D sky130_fd_sc_hd__a21oi_1
*I *1197:Y O *D sky130_fd_sc_hd__inv_2
*CAP
1 *1198:A2 5.10963e-05
2 *1197:Y 5.10963e-05
3 *1198:A1 *1198:A2 7.86973e-05
*RES
1 *1197:Y *1198:A2 19.9571 
*END

*D_NET *174 0.001045
*CONN
*I *1202:B1 I *D sky130_fd_sc_hd__a211o_1
*I *1198:Y O *D sky130_fd_sc_hd__a21oi_1
*CAP
1 *1202:B1 0.00034856
2 *1198:Y 0.00034856
3 *1202:B1 *1202:A1 5.16637e-05
4 *1202:B1 *1563:A 6.86792e-05
5 *1202:A2 *1202:B1 0.000227532
*RES
1 *1198:Y *1202:B1 25.3321 
*END

*D_NET *175 0.0233515
*CONN
*I *1264:A2 I *D sky130_fd_sc_hd__a22o_1
*I *1246:A2 I *D sky130_fd_sc_hd__a22o_1
*I *1255:A2 I *D sky130_fd_sc_hd__a22o_1
*I *1228:A2 I *D sky130_fd_sc_hd__a22o_1
*I *1219:A2 I *D sky130_fd_sc_hd__a22o_1
*I *1201:A2 I *D sky130_fd_sc_hd__a22o_1
*I *1210:A2 I *D sky130_fd_sc_hd__a22o_1
*I *1237:A2 I *D sky130_fd_sc_hd__a22o_1
*I *1199:Y O *D sky130_fd_sc_hd__nor3b_4
*CAP
1 *1264:A2 0.000222105
2 *1246:A2 0.000212747
3 *1255:A2 0
4 *1228:A2 0.00080566
5 *1219:A2 2.04425e-05
6 *1201:A2 0.000328972
7 *1210:A2 1.45588e-05
8 *1237:A2 1.38985e-05
9 *1199:Y 0.00115523
10 *175:86 0.00115588
11 *175:78 0.00132233
12 *175:74 0.00193486
13 *175:63 0.00119043
14 *175:50 0.00116615
15 *175:33 0.00115274
16 *175:14 0.00168672
17 *1201:A2 *1201:B1 0.000167652
18 *1201:A2 *1375:S 0.000196677
19 *1201:A2 *1377:A0 7.74135e-05
20 *1201:A2 *278:31 0.000402698
21 *1201:A2 *332:10 0
22 *1210:A2 *1210:A1 5.33005e-05
23 *1210:A2 *1210:B2 5.49544e-05
24 *1219:A2 *1219:A1 5.33005e-05
25 *1219:A2 *332:74 2.59355e-05
26 *1228:A2 *1228:B1 0.000817725
27 *1228:A2 *1229:C1 9.9916e-05
28 *1228:A2 *1255:A1 0.000100074
29 *1228:A2 *1446:A1 1.19813e-05
30 *1228:A2 *1497:CLK 7.8195e-05
31 *1228:A2 *1556:A 5.65978e-05
32 *1228:A2 *354:6 0.00017421
33 *1237:A2 *1237:A1 5.46383e-06
34 *1246:A2 *176:95 0.000180212
35 *1246:A2 *433:14 0.000256378
36 *1246:A2 *433:16 8.956e-05
37 *1246:A2 *433:18 0.000221886
38 *1246:A2 *434:12 7.18702e-05
39 *1264:A2 *1264:A1 3.11088e-05
40 *1264:A2 *1264:B2 5.66971e-05
41 *1264:A2 *176:77 0.00011712
42 *1264:A2 *353:6 3.96138e-05
43 *175:14 *1237:A1 3.11088e-05
44 *175:14 *1237:B2 9.41642e-05
45 *175:14 *176:24 3.97677e-05
46 *175:14 *388:8 0.000318648
47 *175:33 *1237:A1 5.50371e-05
48 *175:33 *1451:A 0.000172769
49 *175:33 *391:12 3.11997e-05
50 *175:50 *431:14 0.00085217
51 *175:63 *1201:B1 8.00984e-06
52 *175:63 *1219:A1 0.000108295
53 *175:63 *1375:S 0.000181241
54 *175:63 *1547:A 6.22408e-05
55 *175:63 *176:64 4.51556e-05
56 *175:63 *466:51 0.000200506
57 *175:63 *466:73 0.000168939
58 *175:74 *1222:A1 6.82136e-05
59 *175:74 *1260:A1 0.000394913
60 *175:74 *1265:C1 0
61 *175:74 *1393:S 0.000645982
62 *175:74 *1421:A 6.31316e-05
63 *175:74 *1431:A 0
64 *175:74 *1597:A 0.000118903
65 *175:74 *176:77 0.0019055
66 *175:74 *401:54 0
67 *175:74 *466:73 0.000211927
68 *175:78 *1407:A 5.49489e-05
69 *175:86 *1256:C1 6.01956e-05
70 *175:86 *1370:A 9.90367e-05
71 *175:86 *278:61 9.15842e-06
72 *1184:B1 *175:14 5.20359e-06
73 *1196:A *175:14 2.59355e-05
74 *1266:A2 *175:74 0
75 *1497:D *1228:A2 3.09048e-05
76 *1498:D *175:86 7.47852e-05
77 *1514:D *175:78 3.23672e-05
78 *1520:D *175:74 0.000152333
79 *1525:D *175:74 0
80 *1531:D *175:14 1.48266e-05
81 *1534:D *175:33 5.91935e-05
82 *160:45 *175:14 3.36038e-05
83 *165:63 *175:33 1.477e-05
84 *165:63 *175:50 2.02794e-05
85 *172:24 *175:14 0.000902524
86 *172:24 *175:33 0.000160363
*RES
1 *1199:Y *175:14 29.2107 
2 *175:14 *1237:A2 9.72857 
3 *175:14 *175:33 14.7321 
4 *175:33 *1210:A2 14.3357 
5 *175:33 *175:50 8.51305 
6 *175:50 *1201:A2 22.2018 
7 *175:50 *175:63 6.95536 
8 *175:63 *1219:A2 14.3357 
9 *175:63 *175:74 29.5714 
10 *175:74 *175:78 16.5357 
11 *175:78 *175:86 15.7857 
12 *175:86 *1228:A2 27.0679 
13 *175:86 *1255:A2 9.3 
14 *175:78 *1246:A2 25.7107 
15 *175:74 *1264:A2 18.7821 
*END

*D_NET *176 0.0239901
*CONN
*I *1237:B1 I *D sky130_fd_sc_hd__a22o_1
*I *1264:B1 I *D sky130_fd_sc_hd__a22o_1
*I *1246:B1 I *D sky130_fd_sc_hd__a22o_1
*I *1255:B1 I *D sky130_fd_sc_hd__a22o_1
*I *1228:B1 I *D sky130_fd_sc_hd__a22o_1
*I *1219:B1 I *D sky130_fd_sc_hd__a22o_1
*I *1201:B1 I *D sky130_fd_sc_hd__a22o_1
*I *1210:B1 I *D sky130_fd_sc_hd__a22o_1
*I *1200:X O *D sky130_fd_sc_hd__and3b_4
*CAP
1 *1237:B1 0
2 *1264:B1 0.000123304
3 *1246:B1 0
4 *1255:B1 0
5 *1228:B1 0.000654165
6 *1219:B1 0
7 *1201:B1 0.000556354
8 *1210:B1 0
9 *1200:X 0.000927792
10 *176:95 0.000938625
11 *176:87 0.00121757
12 *176:77 0.0024294
13 *176:64 0.00169742
14 *176:45 0.00147287
15 *176:34 0.00101044
16 *176:24 0.00134615
17 *1201:B1 *1201:B2 1.3701e-05
18 *1201:B1 *1202:C1 2.34059e-05
19 *1201:B1 *1210:A1 0.000185302
20 *1201:B1 *1377:A0 4.84016e-05
21 *1201:B1 *332:10 0
22 *1201:B1 *332:29 0
23 *1201:B1 *332:42 0
24 *1201:B1 *392:8 0
25 *1228:B1 *1228:B2 2.04681e-05
26 *1228:B1 *1255:A1 1.4796e-05
27 *1228:B1 *1373:A0 0.000227793
28 *1228:B1 *1497:CLK 0.000141734
29 *1228:B1 *1556:A 0.000195494
30 *1228:B1 *278:75 0.000748791
31 *176:24 *1237:B2 8.17274e-05
32 *176:24 *1270:A1 0.000135217
33 *176:24 *1285:A1 0.00048916
34 *176:24 *1285:A2 2.56246e-05
35 *176:24 *1285:B1 9.67754e-05
36 *176:24 *1444:A0 0.000358374
37 *176:24 *1536:A 0.000356682
38 *176:24 *258:40 0.000100936
39 *176:24 *299:14 3.07302e-05
40 *176:24 *388:8 0.000141935
41 *176:34 *1210:B2 5.45307e-05
42 *176:34 *1238:C1 4.85438e-05
43 *176:34 *1534:CLK 0.00010212
44 *176:34 *356:8 0.000180195
45 *176:34 *434:12 2.81138e-05
46 *176:45 *1210:A1 0.000312769
47 *176:45 *1210:B2 1.10868e-05
48 *176:45 *1450:A0 8.59701e-05
49 *176:45 *1526:CLK 0.000270646
50 *176:45 *1548:A 6.8445e-06
51 *176:64 *1572:A 2.8266e-06
52 *176:64 *332:42 0
53 *176:64 *332:74 0
54 *176:64 *466:51 0.000105561
55 *176:64 *466:73 8.89289e-05
56 *176:77 *1215:B1 0.000109425
57 *176:77 *1383:A1 0
58 *176:77 *1406:A1 0
59 *176:77 *1572:A 0.000122909
60 *176:77 *1608:A 4.71964e-05
61 *176:77 *319:78 0
62 *176:77 *335:12 4.18397e-05
63 *176:77 *335:85 0
64 *176:77 *466:73 0.000117388
65 *176:87 *1246:A1 0.00026032
66 *176:87 *1246:B2 5.7661e-06
67 *176:87 *1365:A0 0.000129595
68 *176:87 *1365:S 0.000444066
69 *176:87 *1438:A1 0.000192848
70 *176:87 *1439:A 2.14658e-05
71 *176:87 *1530:CLK 0
72 *176:87 *1550:A 0.000216354
73 *176:95 *278:75 0.000265445
74 *176:95 *434:12 0.000359355
75 *1184:A1 *176:24 2.61821e-05
76 *1185:A2 *176:24 7.85037e-05
77 *1201:A2 *1201:B1 0.000167652
78 *1228:A2 *1228:B1 0.000817725
79 *1245:A1 *176:77 5.02646e-05
80 *1246:A2 *176:95 0.000180212
81 *1264:A2 *176:77 0.00011712
82 *1497:D *1228:B1 8.89464e-05
83 *1504:D *176:77 0
84 *142:40 *176:24 5.76713e-05
85 *165:38 *176:24 0.000607932
86 *166:10 *176:34 0.000192013
87 *167:84 *176:77 0.000164145
88 *175:14 *176:24 3.97677e-05
89 *175:63 *1201:B1 8.00984e-06
90 *175:63 *176:64 4.51556e-05
91 *175:74 *176:77 0.0019055
*RES
1 *1200:X *176:24 41.0321 
2 *176:24 *176:34 18.0536 
3 *176:34 *1210:B1 9.3 
4 *176:34 *176:45 12.8571 
5 *176:45 *1201:B1 23.4429 
6 *176:45 *176:64 6.5 
7 *176:64 *1219:B1 13.8 
8 *176:64 *176:77 32.6161 
9 *176:77 *176:87 22.6339 
10 *176:87 *176:95 16.2679 
11 *176:95 *1228:B1 27.55 
12 *176:95 *1255:B1 9.3 
13 *176:87 *1246:B1 9.3 
14 *176:77 *1264:B1 16.2732 
15 *176:24 *1237:B1 9.3 
*END

*D_NET *177 0.000495808
*CONN
*I *1202:C1 I *D sky130_fd_sc_hd__a211o_1
*I *1201:X O *D sky130_fd_sc_hd__a22o_1
*CAP
1 *1202:C1 0.000236201
2 *1201:X 0.000236201
3 *1201:B1 *1202:C1 2.34059e-05
*RES
1 *1201:X *1202:C1 22.7429 
*END

*D_NET *178 0.00133445
*CONN
*I *1203:B2 I *D sky130_fd_sc_hd__o22a_1
*I *1202:X O *D sky130_fd_sc_hd__a211o_1
*CAP
1 *1203:B2 0.000146191
2 *1202:X 0.000146191
3 *1203:B2 *1434:A0 0.000375255
4 *1203:B2 *1434:S 0.000321745
5 *1203:B2 *488:26 0.000261346
6 *1203:B1 *1203:B2 8.37187e-05
*RES
1 *1202:X *1203:B2 34.2786 
*END

*D_NET *179 0.00296263
*CONN
*I *1204:A1 I *D sky130_fd_sc_hd__mux2_1
*I *1203:X O *D sky130_fd_sc_hd__o22a_1
*CAP
1 *1204:A1 0.000901092
2 *1203:X 0.000901092
3 *1204:A1 *1343:A1 2.39779e-05
4 *1204:A1 *1344:A 0.000266092
5 *1204:A1 *1395:A0 0.000156769
6 *1204:A1 *1487:CLK 0
7 *1204:A1 *1581:A 8.15044e-05
8 *1203:B1 *1204:A1 0.000531273
9 *1206:A2 *1204:A1 0
10 *1207:A2 *1204:A1 0
11 *1487:D *1204:A1 0.000100831
12 *167:142 *1204:A1 0
*RES
1 *1203:X *1204:A1 44.0107 
*END

*D_NET *180 0.000188101
*CONN
*I *1205:A I *D sky130_fd_sc_hd__clkbuf_1
*I *1204:X O *D sky130_fd_sc_hd__mux2_1
*CAP
1 *1205:A 4.99232e-05
2 *1204:X 4.99232e-05
3 *1205:A *413:30 8.82542e-05
*RES
1 *1204:X *1205:A 19.8679 
*END

*D_NET *181 0.00136393
*CONN
*I *1207:B1 I *D sky130_fd_sc_hd__a21o_1
*I *1206:X O *D sky130_fd_sc_hd__a22o_1
*CAP
1 *1207:B1 0.000523331
2 *1206:X 0.000523331
3 *1207:B1 *1303:A 2.71192e-05
4 *1207:B1 *331:105 0.000257745
5 *1207:B1 *331:114 3.24049e-05
*RES
1 *1206:X *1207:B1 35.0107 
*END

*D_NET *182 0.00090264
*CONN
*I *1212:B1 I *D sky130_fd_sc_hd__o22a_1
*I *1207:X O *D sky130_fd_sc_hd__a21o_1
*CAP
1 *1212:B1 0.000262913
2 *1207:X 0.000262913
3 *1212:B1 *1212:A1 0.000178593
4 *1212:B1 *1212:B2 5.71472e-05
5 *1212:B1 *1213:A1 0
6 *1212:B1 *1302:S 0.000102659
7 *1212:B1 *1341:S 3.8416e-05
8 *1212:B1 *1359:A0 0
*RES
1 *1207:X *1212:B1 32.4929 
*END

*D_NET *183 0.000786624
*CONN
*I *1209:A2 I *D sky130_fd_sc_hd__a21oi_1
*I *1208:Y O *D sky130_fd_sc_hd__inv_2
*CAP
1 *1209:A2 0.000208873
2 *1208:Y 0.000208873
3 *1209:A2 *1518:CLK 0.000133463
4 *1209:A2 *299:135 2.79421e-05
5 *1209:A1 *1209:A2 5.66472e-05
6 *1463:D *1209:A2 3.83493e-06
7 *160:113 *1209:A2 0.000146991
*RES
1 *1208:Y *1209:A2 31.4393 
*END

*D_NET *184 0.0002222
*CONN
*I *1211:B1 I *D sky130_fd_sc_hd__a211o_1
*I *1209:Y O *D sky130_fd_sc_hd__a21oi_1
*CAP
1 *1211:B1 7.62176e-05
2 *1209:Y 7.62176e-05
3 *1211:B1 *1211:C1 3.8624e-05
4 *1211:B1 *1432:A0 3.49456e-06
5 *1211:B1 *1518:CLK 1.17091e-05
6 *1209:B1 *1211:B1 1.59373e-05
*RES
1 *1209:Y *1211:B1 20.4036 
*END

*D_NET *185 0.00415958
*CONN
*I *1211:C1 I *D sky130_fd_sc_hd__a211o_1
*I *1210:X O *D sky130_fd_sc_hd__a22o_1
*CAP
1 *1211:C1 0.00138573
2 *1210:X 0.00138573
3 *1211:C1 *1210:B2 3.88131e-05
4 *1211:C1 *1211:A1 2.83485e-05
5 *1211:C1 *1212:B2 9.58632e-05
6 *1211:C1 *1432:A0 4.7301e-05
7 *1211:C1 *1451:A 5.49544e-05
8 *1211:C1 *1526:CLK 8.64573e-05
9 *1211:C1 *1548:A 0.00056093
10 *1211:C1 *309:56 5.92441e-05
11 *1211:C1 *477:83 1.24368e-05
12 *1211:C1 *477:100 5.46383e-06
13 *1209:B1 *1211:C1 6.51675e-05
14 *1211:A2 *1211:C1 0.000139344
15 *1211:B1 *1211:C1 3.8624e-05
16 *1526:D *1211:C1 3.11667e-05
17 *172:66 *1211:C1 0.000124012
*RES
1 *1210:X *1211:C1 48.3143 
*END

*D_NET *186 0.00282013
*CONN
*I *1212:B2 I *D sky130_fd_sc_hd__o22a_1
*I *1211:X O *D sky130_fd_sc_hd__a211o_1
*CAP
1 *1212:B2 0.000698498
2 *1211:X 0.000698498
3 *1212:B2 *1203:A1 6.42338e-05
4 *1212:B2 *1341:S 5.52302e-05
5 *1212:B2 *1342:A 0
6 *1212:B2 *1343:A0 0
7 *1212:B2 *1417:A 0
8 *1212:B2 *1519:CLK 0
9 *1212:B2 *331:133 0
10 *1198:A1 *1212:B2 0
11 *1198:B1 *1212:B2 0.000110348
12 *1211:C1 *1212:B2 9.58632e-05
13 *1212:A2 *1212:B2 0.000387425
14 *1212:B1 *1212:B2 5.71472e-05
15 *166:78 *1212:B2 0.000555667
16 *166:120 *1212:B2 9.72196e-05
*RES
1 *1211:X *1212:B2 43.1714 
*END

*D_NET *187 0.00135541
*CONN
*I *1213:A1 I *D sky130_fd_sc_hd__mux2_1
*I *1212:X O *D sky130_fd_sc_hd__o22a_1
*CAP
1 *1213:A1 0.00042345
2 *1212:X 0.00042345
3 *1213:A1 *1302:A0 0.00043954
4 *1213:A1 *1302:S 4.73286e-05
5 *1213:A1 *477:22 2.16394e-05
6 *1212:B1 *1213:A1 0
*RES
1 *1212:X *1213:A1 33.6893 
*END

*D_NET *188 0.00151081
*CONN
*I *1214:A I *D sky130_fd_sc_hd__clkbuf_1
*I *1213:X O *D sky130_fd_sc_hd__mux2_1
*CAP
1 *1214:A 0.000383077
2 *1213:X 0.000383077
3 *1214:A *1302:A0 6.93704e-06
4 *1214:A *1302:S 3.69047e-06
5 *1214:A *1316:A 0.000228059
6 *1214:A *331:133 3.06035e-05
7 *1214:A *413:30 0.000226066
8 *1214:A *488:16 0.000249295
*RES
1 *1213:X *1214:A 35.2071 
*END

*D_NET *189 0.00191141
*CONN
*I *1216:B1 I *D sky130_fd_sc_hd__a21o_1
*I *1215:X O *D sky130_fd_sc_hd__a22o_1
*CAP
1 *1216:B1 0.000363995
2 *1215:X 0.000363995
3 *1216:B1 *1258:A1 0.000779311
4 *1216:B1 *1259:A 1.00332e-05
5 *1216:B1 *1300:S 5.52238e-05
6 *1216:B1 *1301:A 1.32552e-05
7 *1216:B1 *1465:CLK 0.000246718
8 *1216:B1 *1570:A 2.97386e-05
9 *1216:B1 *466:35 1.58357e-05
10 *1465:D *1216:B1 3.3304e-05
*RES
1 *1215:X *1216:B1 38.1 
*END

*D_NET *190 0.00180954
*CONN
*I *1221:B1 I *D sky130_fd_sc_hd__o22a_1
*I *1216:X O *D sky130_fd_sc_hd__a21o_1
*CAP
1 *1221:B1 0.000794669
2 *1216:X 0.000794669
3 *1221:B1 *1221:A1 6.03261e-05
4 *1221:B1 *1221:B2 1.84776e-05
5 *1221:B1 *335:85 8.15692e-05
6 *1216:A2 *1221:B1 5.49544e-05
7 *1459:D *1221:B1 4.87669e-06
*RES
1 *1216:X *1221:B1 28.3857 
*END

*D_NET *191 0.00187193
*CONN
*I *1218:A2 I *D sky130_fd_sc_hd__a21oi_1
*I *1217:Y O *D sky130_fd_sc_hd__inv_2
*CAP
1 *1218:A2 0.000666367
2 *1217:Y 0.000666367
3 *1218:A2 *1217:A 0.00010137
4 *1218:A2 *1412:A0 4.01765e-05
5 *1218:A2 *1412:S 7.57394e-05
6 *1218:A2 *1413:A 0
7 *1218:A2 *1430:A0 5.52302e-05
8 *1218:A2 *299:109 6.58099e-05
9 *1218:A2 *466:35 9.73818e-05
10 *1218:A2 *466:43 4.74645e-05
11 *1517:D *1218:A2 5.60201e-05
*RES
1 *1217:Y *1218:A2 48.0821 
*END

*D_NET *192 0.00120932
*CONN
*I *1220:B1 I *D sky130_fd_sc_hd__a211o_1
*I *1218:Y O *D sky130_fd_sc_hd__a21oi_1
*CAP
1 *1220:B1 0.000224098
2 *1218:Y 0.000224098
3 *1220:B1 *1220:C1 0.000148196
4 *1220:B1 *309:54 0.000404324
5 *1220:B1 *309:56 1.02504e-05
6 *1220:B1 *466:43 6.70344e-05
7 *172:66 *1220:B1 0.000131321
*RES
1 *1218:Y *1220:B1 34.2607 
*END

*D_NET *193 0.00178192
*CONN
*I *1220:C1 I *D sky130_fd_sc_hd__a211o_1
*I *1219:X O *D sky130_fd_sc_hd__a22o_1
*CAP
1 *1220:C1 0.000557112
2 *1219:X 0.000557112
3 *1220:C1 *332:74 0.000188586
4 *1220:C1 *332:78 0.000182722
5 *1220:B1 *1220:C1 0.000148196
6 *172:66 *1220:C1 0.000148196
*RES
1 *1219:X *1220:C1 36.2429 
*END

*D_NET *194 0.0016887
*CONN
*I *1221:B2 I *D sky130_fd_sc_hd__o22a_1
*I *1220:X O *D sky130_fd_sc_hd__a211o_1
*CAP
1 *1221:B2 0.000513892
2 *1220:X 0.000513892
3 *1221:B2 *1215:A1 8.48129e-05
4 *1221:B2 *1215:B2 0
5 *1221:B2 *1301:A 0.000116964
6 *1221:B2 *1393:A1 0.000186669
7 *1221:B2 *1393:S 0
8 *1221:B2 *1465:CLK 1.89308e-05
9 *1221:B2 *335:85 5.66971e-05
10 *1215:A2 *1221:B2 7.54369e-06
11 *1221:B1 *1221:B2 1.84776e-05
12 *165:90 *1221:B2 0
13 *172:53 *1221:B2 0.000156818
14 *172:66 *1221:B2 1.40034e-05
*RES
1 *1220:X *1221:B2 37.7964 
*END

*D_NET *195 0.011758
*CONN
*I *1222:A1 I *D sky130_fd_sc_hd__mux2_1
*I *1221:X O *D sky130_fd_sc_hd__o22a_1
*CAP
1 *1222:A1 0.00542256
2 *1221:X 0.00542256
3 *1222:A1 *1393:S 9.15842e-06
4 *1222:A1 *254:46 8.17657e-06
5 *1222:A1 *438:96 0.000112169
6 *1215:A2 *1222:A1 0.000145344
7 *158:135 *1222:A1 0.000142087
8 *158:158 *1222:A1 0.00042218
9 *163:24 *1222:A1 5.54817e-06
10 *167:65 *1222:A1 0
11 *175:74 *1222:A1 6.82136e-05
*RES
1 *1221:X *1222:A1 46.8025 
*END

*D_NET *196 0.00067175
*CONN
*I *1223:A I *D sky130_fd_sc_hd__clkbuf_1
*I *1222:X O *D sky130_fd_sc_hd__mux2_1
*CAP
1 *1223:A 0.000127944
2 *1222:X 0.000127944
3 *1223:A *1492:CLK 0
4 *1223:A *254:46 0
5 *1223:A *254:61 0
6 *1223:A *430:33 0.000347803
7 *1469:RESET_B *1223:A 6.80593e-05
*RES
1 *1222:X *1223:A 31.975 
*END

*D_NET *197 0.000667221
*CONN
*I *1225:B1 I *D sky130_fd_sc_hd__a21o_1
*I *1224:X O *D sky130_fd_sc_hd__a22o_1
*CAP
1 *1225:B1 0.00019622
2 *1224:X 0.00019622
3 *1225:B1 *1299:A 5.66971e-05
4 *142:132 *1225:B1 0
5 *158:135 *1225:B1 5.49995e-05
6 *167:38 *1225:B1 0.000163084
*RES
1 *1224:X *1225:B1 32.2071 
*END

*D_NET *198 0.00106207
*CONN
*I *1230:B1 I *D sky130_fd_sc_hd__o22a_1
*I *1225:X O *D sky130_fd_sc_hd__a21o_1
*CAP
1 *1230:B1 0.000169516
2 *1225:X 0.000169516
3 *1230:B1 *1230:B2 0.000221065
4 *1230:B1 *1298:A1 2.38501e-05
5 *1230:B1 *1298:S 3.28686e-05
6 *1230:B1 *1299:A 0.000100165
7 *1230:B1 *203:12 0.00011712
8 *158:135 *1230:B1 0.000227971
*RES
1 *1225:X *1230:B1 24.0643 
*END

*D_NET *199 0.00249769
*CONN
*I *1227:A2 I *D sky130_fd_sc_hd__a21oi_1
*I *1226:Y O *D sky130_fd_sc_hd__inv_2
*CAP
1 *1227:A2 0.000752015
2 *1226:Y 0.000752015
3 *1227:A2 *1230:B2 9.47456e-05
4 *1227:A2 *1254:A2 0.000308801
5 *1227:A2 *422:30 0.000103253
6 *1227:A2 *425:55 0.000167031
7 *1524:D *1227:A2 0.000103323
8 *142:132 *1227:A2 0.000216504
9 *165:171 *1227:A2 0
*RES
1 *1226:Y *1227:A2 40.9571 
*END

*D_NET *200 0.000927485
*CONN
*I *1229:B1 I *D sky130_fd_sc_hd__a211o_1
*I *1227:Y O *D sky130_fd_sc_hd__a21oi_1
*CAP
1 *1229:B1 0.000304545
2 *1227:Y 0.000304545
3 *1229:B1 *1229:A1 4.71157e-05
4 *1229:B1 *1229:C1 0.000122162
5 *1229:B1 *1601:A 4.82947e-05
6 *1227:B1 *1229:B1 0.000100823
*RES
1 *1227:Y *1229:B1 33.2964 
*END

*D_NET *201 0.00110025
*CONN
*I *1229:C1 I *D sky130_fd_sc_hd__a211o_1
*I *1228:X O *D sky130_fd_sc_hd__a22o_1
*CAP
1 *1229:C1 0.000263685
2 *1228:X 0.000263685
3 *1229:C1 *1229:A1 9.90431e-05
4 *1229:C1 *1556:A 9.45048e-06
5 *1229:C1 *455:78 0.000163974
6 *1227:B1 *1229:C1 7.83366e-05
7 *1228:A2 *1229:C1 9.9916e-05
8 *1229:B1 *1229:C1 0.000122162
*RES
1 *1228:X *1229:C1 33.975 
*END

*D_NET *202 0.00284933
*CONN
*I *1230:B2 I *D sky130_fd_sc_hd__o22a_1
*I *1229:X O *D sky130_fd_sc_hd__a211o_1
*CAP
1 *1230:B2 0.000705999
2 *1229:X 0.000705999
3 *1230:B2 *1230:A1 1.05731e-05
4 *1230:B2 *1298:A0 7.74068e-05
5 *1230:B2 *1298:A1 0.00026023
6 *1230:B2 *1543:A 0.000173194
7 *1230:B2 *425:55 0
8 *1227:A2 *1230:B2 9.47456e-05
9 *1230:B1 *1230:B2 0.000221065
10 *1484:D *1230:B2 0.000102545
11 *142:132 *1230:B2 0.000476023
12 *158:135 *1230:B2 2.15529e-05
*RES
1 *1229:X *1230:B2 45.725 
*END

*D_NET *203 0.00433798
*CONN
*I *1231:A1 I *D sky130_fd_sc_hd__mux2_1
*I *1230:X O *D sky130_fd_sc_hd__o22a_1
*CAP
1 *1231:A1 0
2 *1230:X 0.00166095
3 *203:12 0.00166095
4 *203:12 *1298:S 1.59935e-05
5 *203:12 *1299:A 0.000231307
6 *203:12 *1355:S 1.62621e-05
7 *203:12 *1391:S 0
8 *203:12 *333:16 0.000188225
9 *203:12 *455:10 0
10 *203:12 *455:33 0
11 *1230:B1 *203:12 0.00011712
12 *1508:D *203:12 0.000135197
13 *163:45 *203:12 0.000311967
*RES
1 *1230:X *203:12 44.0679 
2 *203:12 *1231:A1 9.3 
*END

*D_NET *204 0.00122013
*CONN
*I *1232:A I *D sky130_fd_sc_hd__clkbuf_1
*I *1231:X O *D sky130_fd_sc_hd__mux2_1
*CAP
1 *1232:A 0.000368039
2 *1231:X 0.000368039
3 *1232:A *1313:A 9.71197e-05
4 *1232:A *1640:A 7.17136e-05
5 *1232:A *254:82 0.000186669
6 *1232:A *420:10 8.53171e-06
7 *1468:RESET_B *1232:A 0.000120017
8 *163:45 *1232:A 0
*RES
1 *1231:X *1232:A 34.975 
*END

*D_NET *205 0.00288051
*CONN
*I *1234:B1 I *D sky130_fd_sc_hd__a21o_1
*I *1233:X O *D sky130_fd_sc_hd__a22o_1
*CAP
1 *1234:B1 0.000545594
2 *1233:X 0.000545594
3 *1234:B1 *1234:A1 2.68502e-05
4 *1234:B1 *1249:A1 2.16988e-05
5 *1234:B1 *1296:A0 0.000345609
6 *1234:B1 *1297:A 5.71472e-05
7 *1234:B1 *245:20 0.000266486
8 *1234:B1 *245:33 0.000137983
9 *1234:B1 *330:38 6.4443e-05
10 *1234:B1 *364:8 1.3701e-05
11 *1234:B1 *444:46 0.000164903
12 *1234:B1 *444:66 0.000410099
13 *1234:A2 *1234:B1 0.000272603
14 *1483:D *1234:B1 0
15 *165:171 *1234:B1 7.79781e-06
*RES
1 *1233:X *1234:B1 42.3857 
*END

*D_NET *206 0.00216102
*CONN
*I *1239:B1 I *D sky130_fd_sc_hd__o22a_1
*I *1234:X O *D sky130_fd_sc_hd__a21o_1
*CAP
1 *1239:B1 0.000487469
2 *1234:X 0.000487469
3 *1239:B1 *1239:A1 9.31893e-05
4 *1239:B1 *1249:A1 0.000317403
5 *1239:B1 *1335:A0 0.000300144
6 *1239:B1 *1590:A 5.71472e-05
7 *1239:B1 *219:12 0
8 *1239:B1 *258:56 0.000158768
9 *1239:B1 *335:27 0.000142856
10 *1239:B1 *444:66 0.000116579
*RES
1 *1234:X *1239:B1 40.35 
*END

*D_NET *207 0.00232812
*CONN
*I *1236:A2 I *D sky130_fd_sc_hd__a21oi_1
*I *1235:Y O *D sky130_fd_sc_hd__inv_2
*CAP
1 *1236:A2 0.000454225
2 *1235:Y 0.000454225
3 *1236:A2 *1371:A1 0.000171633
4 *1236:A2 *1408:A0 0.000227971
5 *1236:A2 *1426:A0 0.000314139
6 *1236:A2 *1426:A1 0.000136958
7 *1236:A2 *1603:A 0.000100165
8 *1236:A2 *299:14 0.000134461
9 *1236:A2 *299:22 0
10 *1236:A2 *309:10 0.000127446
11 *1236:A2 *309:23 2.31791e-05
12 *1236:A2 *444:83 0
13 *160:70 *1236:A2 0.00018372
*RES
1 *1235:Y *1236:A2 40.0821 
*END

*D_NET *208 0.00130894
*CONN
*I *1238:B1 I *D sky130_fd_sc_hd__a211o_1
*I *1236:Y O *D sky130_fd_sc_hd__a21oi_1
*CAP
1 *1238:B1 0.000216935
2 *1236:Y 0.000216935
3 *1238:B1 *1238:A1 0.000173812
4 *1238:B1 *1239:B2 5.33005e-05
5 *1238:B1 *425:22 2.59355e-05
6 *1238:B1 *434:12 0.000413047
7 *1236:B1 *1238:B1 6.30744e-05
8 *160:70 *1238:B1 1.04232e-05
9 *160:97 *1238:B1 5.19842e-06
10 *172:26 *1238:B1 0.000130277
*RES
1 *1236:Y *1238:B1 34.6893 
*END

*D_NET *209 0.00218521
*CONN
*I *1238:C1 I *D sky130_fd_sc_hd__a211o_1
*I *1237:X O *D sky130_fd_sc_hd__a22o_1
*CAP
1 *1238:C1 0.000395028
2 *1237:X 0.000395028
3 *1238:C1 *1426:A0 8.00806e-05
4 *1238:C1 *328:10 9.25014e-06
5 *1238:C1 *434:12 0.00090564
6 *166:10 *1238:C1 0.000255775
7 *172:24 *1238:C1 9.58632e-05
8 *176:34 *1238:C1 4.85438e-05
*RES
1 *1237:X *1238:C1 40.2071 
*END

*D_NET *210 0.00163687
*CONN
*I *1239:B2 I *D sky130_fd_sc_hd__o22a_1
*I *1238:X O *D sky130_fd_sc_hd__a211o_1
*CAP
1 *1239:B2 0.000541568
2 *1238:X 0.000541568
3 *1239:B2 *1523:CLK 0
4 *1239:B2 *309:23 0.000127446
5 *1239:B2 *328:10 9.71197e-05
6 *1239:B2 *425:22 0.000176825
7 *1238:B1 *1239:B2 5.33005e-05
8 *172:53 *1239:B2 9.90431e-05
*RES
1 *1238:X *1239:B2 37.1893 
*END

*D_NET *211 0.00308217
*CONN
*I *1240:A1 I *D sky130_fd_sc_hd__mux2_1
*I *1239:X O *D sky130_fd_sc_hd__o22a_1
*CAP
1 *1240:A1 0.00109545
2 *1239:X 0.00109545
3 *1240:A1 *1240:A0 0.00010096
4 *1240:A1 *1242:A1 0
5 *1240:A1 *1242:B2 1.85361e-05
6 *1240:A1 *1387:A0 0.000191421
7 *1240:A1 *1490:CLK 0.000137743
8 *1240:A1 *1577:A 0
9 *1240:A1 *288:100 0.000147784
10 *1240:A1 *299:22 0
11 *1240:A1 *299:80 0
12 *1240:A1 *309:23 3.8361e-06
13 *1240:A1 *309:89 0
14 *1240:A1 *335:27 5.71472e-05
15 *1240:A1 *335:40 0.000147557
16 *1240:A1 *363:14 8.91963e-06
17 *1467:RESET_B *1240:A1 4.6025e-06
18 *158:135 *1240:A1 0
19 *163:86 *1240:A1 7.2754e-05
*RES
1 *1239:X *1240:A1 46.7429 
*END

*D_NET *212 0.000546276
*CONN
*I *1241:A I *D sky130_fd_sc_hd__clkbuf_1
*I *1240:X O *D sky130_fd_sc_hd__mux2_1
*CAP
1 *1241:A 0.000164923
2 *1240:X 0.000164923
3 *1241:A *1257:B2 1.30604e-05
4 *1241:A *1467:CLK 4.03577e-05
5 *1241:A *1521:CLK 2.44318e-05
6 *1241:A *254:82 5.19842e-06
7 *1241:A *299:46 5.33005e-05
8 *1521:D *1241:A 8.00806e-05
*RES
1 *1240:X *1241:A 30.6 
*END

*D_NET *213 0.000460866
*CONN
*I *1243:B1 I *D sky130_fd_sc_hd__a21o_1
*I *1242:X O *D sky130_fd_sc_hd__a22o_1
*CAP
1 *1243:B1 0.000134425
2 *1242:X 0.000134425
3 *1243:B1 *1545:A 5.52639e-05
4 *1243:B1 *438:96 5.49995e-05
5 *1242:A2 *1243:B1 1.98839e-05
6 *1248:A2 *1243:B1 5.36098e-05
7 *167:84 *1243:B1 8.25843e-06
*RES
1 *1242:X *1243:B1 29.6893 
*END

*D_NET *214 0.000557593
*CONN
*I *1248:B1 I *D sky130_fd_sc_hd__o22a_1
*I *1243:X O *D sky130_fd_sc_hd__a21o_1
*CAP
1 *1248:B1 0.000140526
2 *1243:X 0.000140526
3 *1248:B1 *1334:A 0
4 *1248:B1 *278:61 0.000149911
5 *1248:A2 *1248:B1 2.56694e-05
6 *167:65 *1248:B1 0.00010096
*RES
1 *1243:X *1248:B1 30.4929 
*END

*D_NET *215 0.00036715
*CONN
*I *1245:A2 I *D sky130_fd_sc_hd__a21oi_1
*I *1244:Y O *D sky130_fd_sc_hd__inv_2
*CAP
1 *1245:A2 0.00012776
2 *1244:Y 0.00012776
3 *1245:A2 *299:80 0
4 *1245:A2 *319:78 0
5 *1245:A1 *1245:A2 7.44888e-05
6 *1245:B1 *1245:A2 3.71423e-05
*RES
1 *1244:Y *1245:A2 30.0286 
*END

*D_NET *216 0.00181795
*CONN
*I *1247:B1 I *D sky130_fd_sc_hd__a211o_1
*I *1245:Y O *D sky130_fd_sc_hd__a21oi_1
*CAP
1 *1247:B1 0.000704521
2 *1245:Y 0.000704521
3 *1247:B1 *1247:C1 1.599e-05
4 *1247:B1 *1425:A 6.35542e-05
5 *1247:B1 *1596:A 0.000228791
6 *1247:B1 *299:80 7.25235e-05
7 *1247:B1 *299:97 2.27416e-05
8 *1245:B1 *1247:B1 5.30637e-06
*RES
1 *1245:Y *1247:B1 29.2964 
*END

*D_NET *217 0.00251582
*CONN
*I *1247:C1 I *D sky130_fd_sc_hd__a211o_1
*I *1246:X O *D sky130_fd_sc_hd__a22o_1
*CAP
1 *1247:C1 0.00055539
2 *1246:X 0.00055539
3 *1247:C1 *1369:A0 0.000264691
4 *1247:C1 *1425:A 3.7117e-05
5 *1247:C1 *433:14 0.000195706
6 *1247:C1 *433:16 9.96487e-05
7 *1247:C1 *433:18 0.000603139
8 *1247:C1 *433:20 0.000188746
9 *1247:B1 *1247:C1 1.599e-05
10 *1514:D *1247:C1 0
11 *1522:D *1247:C1 0
*RES
1 *1246:X *1247:C1 41.5554 
*END

*D_NET *218 0.00120365
*CONN
*I *1248:B2 I *D sky130_fd_sc_hd__o22a_1
*I *1247:X O *D sky130_fd_sc_hd__a211o_1
*CAP
1 *1248:B2 0.000330652
2 *1247:X 0.000330652
3 *1248:B2 *1248:A1 0.000109795
4 *1248:B2 *1545:A 0.000121573
5 *1248:B2 *258:85 5.04589e-05
6 *1248:B2 *278:61 0
7 *1248:B2 *434:12 0.000260519
*RES
1 *1247:X *1248:B2 33.975 
*END

*D_NET *219 0.0102941
*CONN
*I *1249:A1 I *D sky130_fd_sc_hd__mux2_1
*I *1248:X O *D sky130_fd_sc_hd__o22a_1
*CAP
1 *1249:A1 0.00248571
2 *1248:X 0.000952089
3 *219:12 0.0034378
4 *1249:A1 *1234:A1 7.00641e-05
5 *1249:A1 *1250:A 0
6 *1249:A1 *1311:A 1.46231e-05
7 *1249:A1 *1335:A0 1.74352e-05
8 *1249:A1 *1390:A 2.27416e-05
9 *1249:A1 *1457:CLK 0.000148165
10 *1249:A1 *258:40 1.72894e-05
11 *1249:A1 *288:68 9.7659e-05
12 *1249:A1 *288:76 5.62995e-05
13 *1249:A1 *396:8 0.000316562
14 *1249:A1 *444:31 3.14193e-05
15 *1249:A1 *444:46 4.16984e-05
16 *1249:A1 *444:66 1.40309e-05
17 *1249:A1 *444:81 1.68715e-05
18 *219:12 *1257:B2 0
19 *219:12 *1351:A0 2.61099e-05
20 *219:12 *1351:S 0.000440711
21 *219:12 *258:56 0.000315887
22 *219:12 *299:22 0.00112759
23 *219:12 *438:75 6.58525e-05
24 *1230:A2 *219:12 0
25 *1234:A2 *1249:A1 6.49911e-05
26 *1234:B1 *1249:A1 2.16988e-05
27 *1239:B1 *1249:A1 0.000317403
28 *1239:B1 *219:12 0
29 *1249:S *1249:A1 1.04232e-05
30 *1506:D *219:12 4.68532e-05
31 *1507:D *1249:A1 1.2081e-05
32 *163:14 *1249:A1 7.77561e-05
33 *163:24 *1249:A1 2.62395e-05
*RES
1 *1248:X *219:12 38.9607 
2 *219:12 *1249:A1 42.4786 
*END

*D_NET *220 0.000238001
*CONN
*I *1250:A I *D sky130_fd_sc_hd__clkbuf_1
*I *1249:X O *D sky130_fd_sc_hd__mux2_1
*CAP
1 *1250:A 0.000119
2 *1249:X 0.000119
3 *1249:A1 *1250:A 0
4 *163:24 *1250:A 0
*RES
1 *1249:X *1250:A 20.6893 
*END

*D_NET *221 0.000987848
*CONN
*I *1252:B1 I *D sky130_fd_sc_hd__a21o_1
*I *1251:X O *D sky130_fd_sc_hd__a22o_1
*CAP
1 *1252:B1 0.000293676
2 *1251:X 0.000293676
3 *1252:B1 *242:12 3.9733e-05
4 *1252:B1 *422:66 0.00032103
5 *1252:B1 *438:23 3.9733e-05
*RES
1 *1251:X *1252:B1 33.3143 
*END

*D_NET *222 0.002467
*CONN
*I *1257:B1 I *D sky130_fd_sc_hd__o22a_1
*I *1252:X O *D sky130_fd_sc_hd__a21o_1
*CAP
1 *1257:B1 0.000525413
2 *1252:X 0.000525413
3 *1257:B1 *1257:A1 3.15406e-05
4 *1257:B1 *1292:S 0.000137983
5 *1257:B1 *1331:A0 7.49387e-06
6 *1257:B1 *1331:A1 0.000135012
7 *1257:B1 *258:56 0.000228784
8 *1257:B1 *422:54 2.24079e-05
9 *1257:B1 *422:66 0.000317082
10 *1257:B1 *437:112 0.000394741
11 *1257:A2 *1257:B1 0.000141133
*RES
1 *1252:X *1257:B1 31.3679 
*END

*D_NET *223 0.00153415
*CONN
*I *1254:A2 I *D sky130_fd_sc_hd__a21oi_1
*I *1253:Y O *D sky130_fd_sc_hd__inv_2
*CAP
1 *1254:A2 0.000416032
2 *1253:Y 0.000416032
3 *1254:A2 *1253:A 1.31431e-05
4 *1254:A2 *334:32 5.30346e-05
5 *1254:A2 *373:8 9.90367e-05
6 *1254:A2 *422:30 0.000111413
7 *1227:A2 *1254:A2 0.000308801
8 *1524:D *1254:A2 0.000103323
9 *165:171 *1254:A2 1.33343e-05
*RES
1 *1253:Y *1254:A2 27.9036 
*END

*D_NET *224 0.00218485
*CONN
*I *1256:B1 I *D sky130_fd_sc_hd__a211o_1
*I *1254:Y O *D sky130_fd_sc_hd__a21oi_1
*CAP
1 *1256:B1 0.000620613
2 *1254:Y 0.000620613
3 *1256:B1 *1257:B2 0
4 *1256:B1 *422:30 1.32056e-05
5 *1256:B1 *422:92 0.000269795
6 *1256:B1 *422:105 0.000634686
7 *172:110 *1256:B1 2.59355e-05
*RES
1 *1254:Y *1256:B1 37.1893 
*END

*D_NET *225 0.00140977
*CONN
*I *1256:C1 I *D sky130_fd_sc_hd__a211o_1
*I *1255:X O *D sky130_fd_sc_hd__a22o_1
*CAP
1 *1256:C1 0.0004236
2 *1255:X 0.0004236
3 *1256:C1 *1367:A0 0
4 *1256:C1 *278:61 0.00015289
5 *172:110 *1256:C1 0.000349482
6 *175:86 *1256:C1 6.01956e-05
*RES
1 *1255:X *1256:C1 37.6714 
*END

*D_NET *226 0.00277234
*CONN
*I *1257:B2 I *D sky130_fd_sc_hd__o22a_1
*I *1256:X O *D sky130_fd_sc_hd__a211o_1
*CAP
1 *1257:B2 0.00109261
2 *1256:X 0.00109261
3 *1257:B2 *1257:A1 0.00019286
4 *1257:B2 *1352:A 2.56694e-05
5 *1257:B2 *1422:A0 0
6 *1257:B2 *1428:S 0
7 *1257:B2 *1549:A 0.000124019
8 *1257:B2 *258:60 0
9 *1257:B2 *258:85 0
10 *1257:B2 *299:22 0
11 *1257:B2 *299:46 4.38243e-05
12 *1257:B2 *336:12 0
13 *1257:B2 *378:14 0
14 *1257:B2 *438:75 0
15 *1230:A2 *1257:B2 0.000152866
16 *1241:A *1257:B2 1.30604e-05
17 *1256:B1 *1257:B2 0
18 *1521:D *1257:B2 3.48235e-05
19 *167:65 *1257:B2 0
20 *219:12 *1257:B2 0
*RES
1 *1256:X *1257:B2 47.3143 
*END

*D_NET *227 0.00793098
*CONN
*I *1258:A1 I *D sky130_fd_sc_hd__mux2_1
*I *1257:X O *D sky130_fd_sc_hd__o22a_1
*CAP
1 *1258:A1 0.0011022
2 *1257:X 0.00135304
3 *227:8 0.00245523
4 *1258:A1 *1215:A1 1.98839e-05
5 *1258:A1 *1301:A 2.88018e-06
6 *1258:A1 *1465:CLK 7.15905e-06
7 *1258:A1 *254:113 0
8 *1258:A1 *466:18 1.69458e-05
9 *1258:A1 *466:35 0
10 *227:8 *1215:A1 5.52238e-05
11 *227:8 *1215:B1 0.000141009
12 *227:8 *1394:A 0.000303856
13 *227:8 *335:8 9.90431e-05
14 *1215:A2 *227:8 9.22103e-06
15 *1216:B1 *1258:A1 0.000779311
16 *1257:A2 *227:8 5.52238e-05
17 *1465:D *1258:A1 8.99782e-05
18 *1509:D *227:8 0.000441258
19 *166:25 *227:8 0.00099952
*RES
1 *1257:X *227:8 37.3714 
2 *227:8 *1258:A1 32.8 
*END

*D_NET *228 0.00103578
*CONN
*I *1259:A I *D sky130_fd_sc_hd__clkbuf_1
*I *1258:X O *D sky130_fd_sc_hd__mux2_1
*CAP
1 *1259:A 0.000396156
2 *1258:X 0.000396156
3 *1259:A *1570:A 2.4314e-05
4 *1259:A *466:35 0.000110779
5 *1216:B1 *1259:A 1.00332e-05
6 *1258:S *1259:A 9.83442e-05
*RES
1 *1258:X *1259:A 32.7964 
*END

*D_NET *229 0.00315125
*CONN
*I *1261:B1 I *D sky130_fd_sc_hd__a21o_1
*I *1260:X O *D sky130_fd_sc_hd__a22o_1
*CAP
1 *1261:B1 0.000524847
2 *1260:X 0.000524847
3 *1261:B1 *1260:B2 5.7057e-05
4 *1261:B1 *1261:A1 0.000305015
5 *1261:B1 *1290:S 1.02301e-05
6 *1261:B1 *1300:S 0.000114633
7 *1261:B1 *245:102 0.00032788
8 *1261:B1 *309:54 4.26646e-05
9 *1261:B1 *393:14 7.83659e-05
10 *1215:A2 *1261:B1 0.000137639
11 *1261:A2 *1261:B1 4.25176e-05
12 *1454:D *1261:B1 0.000244365
13 *158:158 *1261:B1 0.000307343
14 *160:150 *1261:B1 0.000127888
15 *166:120 *1261:B1 0.000305961
*RES
1 *1260:X *1261:B1 44.2071 
*END

*D_NET *230 0.00080517
*CONN
*I *1266:B1 I *D sky130_fd_sc_hd__o22a_1
*I *1261:X O *D sky130_fd_sc_hd__a21o_1
*CAP
1 *1266:B1 0.000149185
2 *1261:X 0.000149185
3 *1266:B1 *1266:A1 0.00018077
4 *1266:B1 *1291:A 0.00012401
5 *1266:B1 *299:109 6.09476e-05
6 *158:158 *1266:B1 5.52238e-05
7 *163:86 *1266:B1 8.58496e-05
*RES
1 *1261:X *1266:B1 31.5464 
*END

*D_NET *231 0.00090394
*CONN
*I *1263:A2 I *D sky130_fd_sc_hd__a21oi_1
*I *1262:Y O *D sky130_fd_sc_hd__inv_2
*CAP
1 *1263:A2 0.000240303
2 *1262:Y 0.000240303
3 *1263:A2 *1262:A 8.00806e-05
4 *1263:A2 *1265:B1 0
5 *1263:A2 *1403:A 6.48863e-05
6 *1263:A2 *1464:CLK 0
7 *1263:A2 *1512:CLK 0.000102545
8 *1263:A2 *336:144 8.54705e-05
9 *1263:A2 *377:10 0
10 *1263:A2 *401:36 6.14499e-05
11 *160:150 *1263:A2 2.89016e-05
*RES
1 *1262:Y *1263:A2 33.8679 
*END

*D_NET *232 0.00114831
*CONN
*I *1265:B1 I *D sky130_fd_sc_hd__a211o_1
*I *1263:Y O *D sky130_fd_sc_hd__a21oi_1
*CAP
1 *1265:B1 0.000335718
2 *1263:Y 0.000335718
3 *1265:B1 *1265:A1 1.04232e-05
4 *1265:B1 *1265:C1 3.76337e-05
5 *1265:B1 *1420:A0 0
6 *1265:B1 *1421:A 8.50795e-06
7 *1265:B1 *336:144 0.000136039
8 *1265:B1 *377:10 0
9 *1263:A2 *1265:B1 0
10 *1263:B1 *1265:B1 9.90431e-05
11 *1265:A2 *1265:B1 4.47562e-05
12 *160:154 *1265:B1 0.000140471
*RES
1 *1263:Y *1265:B1 35.9214 
*END

*D_NET *233 0.000747177
*CONN
*I *1265:C1 I *D sky130_fd_sc_hd__a211o_1
*I *1264:X O *D sky130_fd_sc_hd__a22o_1
*CAP
1 *1265:C1 0.000332883
2 *1264:X 0.000332883
3 *1265:C1 *1265:A1 2.30392e-05
4 *1265:A2 *1265:C1 2.07382e-05
5 *1265:B1 *1265:C1 3.76337e-05
6 *175:74 *1265:C1 0
*RES
1 *1264:X *1265:C1 33.1536 
*END

*D_NET *234 0.00142119
*CONN
*I *1266:B2 I *D sky130_fd_sc_hd__o22a_1
*I *1265:X O *D sky130_fd_sc_hd__a211o_1
*CAP
1 *1266:B2 0.000505151
2 *1265:X 0.000505151
3 *1266:B2 *1265:A1 5.41494e-05
4 *1266:B2 *1403:A 6.42242e-05
5 *1266:B2 *1420:A0 0
6 *1266:B2 *1576:A 6.4443e-05
7 *1266:B2 *309:54 5.78861e-05
8 *1266:B2 *377:10 0
9 *1266:B2 *401:36 0
10 *1266:B2 *401:44 0
11 *1263:B1 *1266:B2 0
12 *160:150 *1266:B2 0.000170182
13 *165:90 *1266:B2 0
*RES
1 *1265:X *1266:B2 37.7071 
*END

*D_NET *235 0.00187708
*CONN
*I *1267:A1 I *D sky130_fd_sc_hd__mux2_1
*I *1266:X O *D sky130_fd_sc_hd__o22a_1
*CAP
1 *1267:A1 0.00052096
2 *1266:X 0.00052096
3 *1267:A1 *1266:A1 2.27766e-05
4 *1267:A1 *1267:A0 0.000123728
5 *1267:S *1267:A1 0.000286962
6 *163:86 *1267:A1 0.000401696
*RES
1 *1266:X *1267:A1 35.9393 
*END

*D_NET *236 0.000806008
*CONN
*I *1268:A I *D sky130_fd_sc_hd__clkbuf_1
*I *1267:X O *D sky130_fd_sc_hd__mux2_1
*CAP
1 *1268:A 0.000291514
2 *1267:X 0.000291514
3 *1268:A *431:18 0
4 *1464:D *1268:A 0.000167285
5 *1464:RESET_B *1268:A 5.56943e-05
*RES
1 *1267:X *1268:A 34.1 
*END

*D_NET *237 9.34293e-05
*CONN
*I *1274:A I *D sky130_fd_sc_hd__dlymetal6s2s_1
*I *1273:X O *D sky130_fd_sc_hd__or2_1
*CAP
1 *1274:A 1.8141e-05
2 *1273:X 1.8141e-05
3 *1274:A *435:52 5.71472e-05
*RES
1 *1273:X *1274:A 19.1357 
*END

*D_NET *238 0.00898669
*CONN
*I *1281:A2 I *D sky130_fd_sc_hd__o21a_1
*I *1276:A I *D sky130_fd_sc_hd__inv_2
*I *1286:B I *D sky130_fd_sc_hd__and3b_1
*I *1275:Y O *D sky130_fd_sc_hd__xnor2_2
*CAP
1 *1281:A2 0.000694904
2 *1276:A 0.000696528
3 *1286:B 0.000281755
4 *1275:Y 0.000341235
5 *238:16 0.00216722
6 *238:10 0.00222508
7 *1276:A *1286:C 0
8 *1276:A *418:18 0
9 *1276:A *430:33 0
10 *1281:A2 *1538:A 0
11 *1281:A2 *328:113 0
12 *1281:A2 *330:10 0
13 *1286:B *1286:A_N 6.60598e-05
14 *1286:B *1286:C 0
15 *1286:B *1287:A 9.25014e-06
16 *1286:B *418:18 0
17 *238:10 *1538:A 0
18 *238:16 *1318:A 0.000735319
19 *238:16 *244:83 9.83442e-05
20 *1156:A *1281:A2 8.6229e-06
21 *1156:A *238:10 0.000147828
22 *1156:B *1281:A2 9.33907e-05
23 *1156:B *238:16 5.33334e-05
24 *1173:B1 *1281:A2 1.07753e-05
25 *1200:A_N *1281:A2 2.76457e-05
26 *1275:B *238:10 2.89114e-05
27 *1280:B *1281:A2 4.35945e-05
28 *1474:D *1276:A 3.25224e-05
29 *1474:RESET_B *238:16 3.08664e-05
30 *139:29 *1281:A2 0.000125731
31 *139:54 *1281:A2 3.67356e-05
32 *142:40 *1281:A2 0
33 *154:10 *238:10 0
34 *157:86 *1281:A2 1.44587e-05
35 *160:45 *1281:A2 0.000135028
36 *163:191 *238:16 0.000414275
37 *165:38 *1281:A2 0.000352379
38 *167:122 *238:10 0.00011489
*RES
1 *1275:Y *238:10 19.1571 
2 *238:10 *238:16 32.125 
3 *238:16 *1286:B 18.8714 
4 *238:16 *1276:A 26.0679 
5 *238:10 *1281:A2 26.5143 
*END

*D_NET *239 0.000339739
*CONN
*I *1278:B I *D sky130_fd_sc_hd__or2_1
*I *1277:X O *D sky130_fd_sc_hd__and2_1
*CAP
1 *1278:B 8.82597e-05
2 *1277:X 8.82597e-05
3 *1278:B *425:55 5.52302e-05
4 *1278:B *425:67 2.79092e-05
5 *1278:B *437:122 8.00806e-05
*RES
1 *1277:X *1278:B 29.6 
*END

*D_NET *240 0.000305418
*CONN
*I *1279:A I *D sky130_fd_sc_hd__clkbuf_1
*I *1278:X O *D sky130_fd_sc_hd__or2_1
*CAP
1 *1279:A 0.000152709
2 *1278:X 0.000152709
*RES
1 *1278:X *1279:A 20.7786 
*END

*D_NET *241 0.00251858
*CONN
*I *1281:A1 I *D sky130_fd_sc_hd__o21a_1
*I *1285:B1 I *D sky130_fd_sc_hd__a21oi_2
*I *1280:Y O *D sky130_fd_sc_hd__nor3_1
*CAP
1 *1281:A1 0.000321903
2 *1285:B1 4.32357e-05
3 *1280:Y 0.000197207
4 *241:10 0.000562345
5 *1281:A1 *1283:C 0.000375546
6 *1281:A1 *330:50 8.37944e-05
7 *1281:A1 *430:14 0.000113575
8 *1281:A1 *431:14 9.59532e-06
9 *241:10 *1283:C 4.35735e-05
10 *241:10 *1535:CLK 7.49267e-05
11 *241:10 *435:14 9.85131e-05
12 *1281:B1 *1281:A1 8.59075e-05
13 *142:40 *1281:A1 1.65953e-05
14 *142:40 *1285:B1 6.05161e-06
15 *142:40 *241:10 0.00011959
16 *142:55 *1281:A1 0
17 *142:61 *1281:A1 5.33005e-05
18 *160:45 *1281:A1 0.000216141
19 *176:24 *1285:B1 9.67754e-05
*RES
1 *1280:Y *241:10 17.1036 
2 *241:10 *1285:B1 14.7464 
3 *241:10 *1281:A1 22.3357 
*END

*D_NET *242 0.00545563
*CONN
*I *1284:A I *D sky130_fd_sc_hd__clkbuf_1
*I *1283:X O *D sky130_fd_sc_hd__and3b_1
*CAP
1 *1284:A 0.000857025
2 *1283:X 0.00117391
3 *242:12 0.00203093
4 *1284:A *1226:A 0
5 *1284:A *1253:A 0
6 *1284:A *1405:A 0
7 *1284:A *1410:A1 3.52572e-05
8 *1284:A *1598:A 0
9 *1284:A *1605:A 0
10 *1284:A *422:14 0
11 *242:12 *1251:A1 0.000171437
12 *242:12 *1283:B 5.50052e-05
13 *242:12 *1391:A1 4.15914e-05
14 *242:12 *1391:S 0.000143272
15 *242:12 *1410:A1 0.000257796
16 *242:12 *288:68 0.000121193
17 *242:12 *288:76 0.000151628
18 *242:12 *333:10 0
19 *242:12 *362:10 0.00012401
20 *242:12 *365:16 0.000140454
21 *242:12 *437:48 5.66971e-05
22 *242:12 *438:23 0
23 *242:12 *438:42 0
24 *242:12 *444:31 0
25 *242:12 *455:33 0
26 *1252:B1 *242:12 3.9733e-05
27 *1455:D *242:12 5.56943e-05
28 *1516:D *1284:A 0
*RES
1 *1283:X *242:12 40.3446 
2 *242:12 *1284:A 29.5589 
*END

*D_NET *243 0.000439564
*CONN
*I *1287:A I *D sky130_fd_sc_hd__clkbuf_1
*I *1286:X O *D sky130_fd_sc_hd__and3b_1
*CAP
1 *1287:A 0.000144545
2 *1286:X 0.000144545
3 *1287:A *1286:A_N 8.00806e-05
4 *1287:A *1599:A 6.11433e-05
5 *1286:B *1287:A 9.25014e-06
*RES
1 *1286:X *1287:A 30.6179 
*END

*D_NET *244 0.012521
*CONN
*I *1321:A I *D sky130_fd_sc_hd__inv_2
*I *1322:A I *D sky130_fd_sc_hd__inv_2
*I *1307:A I *D sky130_fd_sc_hd__clkbuf_8
*I *1318:A I *D sky130_fd_sc_hd__inv_2
*I *1319:A I *D sky130_fd_sc_hd__inv_2
*I *1320:A I *D sky130_fd_sc_hd__inv_2
*I *1324:A I *D sky130_fd_sc_hd__inv_2
*I *1289:A I *D sky130_fd_sc_hd__nor2_4
*I *1381:B I *D sky130_fd_sc_hd__or3b_1
*I *1323:A I *D sky130_fd_sc_hd__inv_2
*I *1288:X O *D sky130_fd_sc_hd__buf_4
*CAP
1 *1321:A 9.25253e-05
2 *1322:A 0.000374832
3 *1307:A 0
4 *1318:A 0.000477567
5 *1319:A 0
6 *1320:A 9.36887e-05
7 *1324:A 0.000437201
8 *1289:A 0.000142367
9 *1381:B 0
10 *1323:A 0.000246204
11 *1288:X 0
12 *244:112 0.00050643
13 *244:83 0.000717176
14 *244:66 0.000561399
15 *244:51 0.000769231
16 *244:47 0.000961385
17 *244:30 0.00107335
18 *244:21 0.000268236
19 *244:8 0.000657291
20 *244:4 0.000255454
21 *1318:A *268:18 0.000106542
22 *1318:A *499:19 0.000200413
23 *1320:A *1286:A_N 0.000185124
24 *1321:A *1306:A 3.50166e-05
25 *1321:A *288:36 0.000138691
26 *1322:A *1166:B 0
27 *1322:A *1167:A 8.72987e-06
28 *1322:A *1169:A1 0
29 *1322:A *1288:A 3.27526e-05
30 *1322:A *515:14 3.70933e-05
31 *1323:A *1645:A 0.000276211
32 *1324:A *444:10 0.000255522
33 *244:8 *288:36 0.000441695
34 *244:8 *516:6 6.05161e-06
35 *244:21 *288:36 0
36 *244:21 *516:29 5.03787e-05
37 *244:21 *516:40 2.37761e-05
38 *244:47 *1158:B 0.000140935
39 *244:51 *1158:B 0.000228514
40 *244:66 *444:10 0.000226648
41 *244:83 *444:10 6.47912e-05
42 *244:112 *288:36 4.5632e-05
43 *1159:A1 *1322:A 0
44 *1163:A *244:47 0.000146853
45 *1163:B *244:21 4.46186e-06
46 *1163:B *244:30 6.07232e-05
47 *1163:B *244:47 6.25266e-06
48 *1167:B *1322:A 4.26551e-05
49 *1168:A *244:8 4.88637e-05
50 *1168:B *1322:A 0
51 *1168:B *244:8 0.000232399
52 *1170:A *1321:A 5.68713e-05
53 *1170:A *1322:A 0.0001975
54 *1170:B *1321:A 5.10288e-05
55 *1183:B1_N *244:83 0.000227736
56 *1289:B *1289:A 0.000186669
57 *1475:RESET_B *244:66 2.74352e-05
58 *1476:D *1321:A 1.59373e-05
59 *1477:D *244:21 0
60 *1477:RESET_B *1322:A 2.72375e-05
61 *1478:RESET_B *1323:A 0
62 *1478:RESET_B *244:21 0
63 *143:6 *244:47 4.94197e-05
64 *144:46 *1289:A 7.32955e-05
65 *163:191 *1318:A 9.31209e-05
66 *238:16 *1318:A 0.000735319
67 *238:16 *244:83 9.83442e-05
*RES
1 *1288:X *244:4 9.3 
2 *244:4 *244:8 12.0179 
3 *244:8 *1323:A 18.9429 
4 *244:8 *244:21 3.46429 
5 *244:21 *1381:B 13.8 
6 *244:21 *244:30 1.64286 
7 *244:30 *1289:A 17.2286 
8 *244:30 *244:47 18.375 
9 *244:47 *244:51 6.67857 
10 *244:51 *1324:A 22.4964 
11 *244:51 *244:66 5.58929 
12 *244:66 *1320:A 15.9964 
13 *244:66 *244:83 10.125 
14 *244:83 *1319:A 9.3 
15 *244:83 *1318:A 29.7464 
16 *244:47 *1307:A 9.3 
17 *244:4 *244:112 0.946429 
18 *244:112 *1322:A 26.3625 
19 *244:112 *1321:A 12.3179 
*END

*D_NET *245 0.0279278
*CONN
*I *1302:S I *D sky130_fd_sc_hd__mux2_1
*I *1304:S I *D sky130_fd_sc_hd__mux2_1
*I *1300:S I *D sky130_fd_sc_hd__mux2_1
*I *1290:S I *D sky130_fd_sc_hd__mux2_1
*I *1294:S I *D sky130_fd_sc_hd__mux2_1
*I *1298:S I *D sky130_fd_sc_hd__mux2_1
*I *1292:S I *D sky130_fd_sc_hd__mux2_1
*I *1296:S I *D sky130_fd_sc_hd__mux2_1
*I *1289:Y O *D sky130_fd_sc_hd__nor2_4
*CAP
1 *1302:S 0.00110676
2 *1304:S 0
3 *1300:S 0.000323511
4 *1290:S 1.68074e-05
5 *1294:S 2.13113e-05
6 *1298:S 0.000235199
7 *1292:S 4.1975e-05
8 *1296:S 2.23854e-05
9 *1289:Y 0.000124882
10 *245:132 0.00236717
11 *245:102 0.00104049
12 *245:85 0.00208008
13 *245:46 0.00167457
14 *245:33 0.000460589
15 *245:20 0.00189432
16 *245:10 0.00291938
17 *1292:S *1331:A1 4.13496e-05
18 *1292:S *422:54 2.89114e-05
19 *1298:S *1543:A 0.00012249
20 *1298:S *333:91 9.58632e-05
21 *1298:S *333:98 2.42516e-05
22 *1300:S *1465:CLK 2.89016e-05
23 *1302:S *1207:A1 0.000386896
24 *1302:S *1302:A0 9.74665e-05
25 *1302:S *1303:A 3.23453e-05
26 *1302:S *1304:A0 9.76435e-06
27 *1302:S *1359:A0 0.000354086
28 *1302:S *1359:S 0.00030892
29 *1302:S *1360:A 0.000394738
30 *1302:S *1487:CLK 9.15842e-06
31 *1302:S *1591:A 0.000311206
32 *1302:S *331:36 0.000169095
33 *1302:S *477:26 0.000128031
34 *245:20 *1153:B 0
35 *245:20 *1177:A 0
36 *245:20 *1200:C 9.72196e-05
37 *245:20 *1296:A1 0.000139913
38 *245:20 *1457:CLK 0
39 *245:20 *1538:A 0
40 *245:20 *330:10 0
41 *245:20 *330:38 2.14658e-05
42 *245:20 *444:46 9.71197e-05
43 *245:20 *444:66 1.52978e-05
44 *245:33 *328:113 0.000135432
45 *245:33 *330:38 6.71755e-05
46 *245:33 *425:55 0.000409033
47 *245:33 *437:89 0.000165751
48 *245:33 *437:112 5.58941e-05
49 *245:46 *425:55 0.000256305
50 *245:46 *437:112 0.000265555
51 *245:85 *1294:A0 7.83596e-05
52 *245:85 *1456:CLK 0.000211147
53 *245:85 *1506:CLK 0.000224404
54 *245:85 *1565:A 0.00016867
55 *245:85 *288:100 3.68566e-05
56 *245:85 *288:111 0.000729678
57 *245:85 *309:23 4.79773e-05
58 *245:85 *333:98 0.000124393
59 *245:85 *338:8 0.000185118
60 *245:85 *363:14 0.000156183
61 *245:85 *438:96 0.000105188
62 *245:102 *1260:A1 1.62025e-05
63 *245:102 *1260:B2 6.93704e-06
64 *245:102 *1294:A0 2.24718e-05
65 *245:102 *1551:A 0.000315451
66 *245:102 *288:111 0.000724688
67 *245:102 *438:96 0.000582225
68 *245:132 *1159:C1 0.000401872
69 *245:132 *1159:D1 1.62025e-05
70 *245:132 *1304:A0 7.43315e-05
71 *245:132 *1325:A_N 0.000139344
72 *245:132 *1397:A0 9.35794e-06
73 *245:132 *413:32 0.000569163
74 *245:132 *413:34 4.97967e-05
75 *245:132 *413:36 2.12647e-05
76 *1159:A2 *245:132 0.000477939
77 *1175:A2 *245:20 0
78 *1176:A *245:20 0
79 *1188:B *245:20 0.000137102
80 *1206:A2 *1302:S 4.24291e-05
81 *1207:A2 *1302:S 9.84729e-05
82 *1212:B1 *1302:S 0.000102659
83 *1213:A1 *1302:S 4.73286e-05
84 *1214:A *1302:S 3.69047e-06
85 *1215:A2 *245:102 3.69588e-05
86 *1216:B1 *1300:S 5.52238e-05
87 *1230:B1 *1298:S 3.28686e-05
88 *1234:B1 *245:20 0.000266486
89 *1234:B1 *245:33 0.000137983
90 *1257:B1 *1292:S 0.000137983
91 *1261:B1 *1290:S 1.02301e-05
92 *1261:B1 *1300:S 0.000114633
93 *1261:B1 *245:102 0.00032788
94 *1459:D *245:102 9.67754e-05
95 *1506:D *245:85 4.87669e-06
96 *143:6 *245:20 0.000183711
97 *143:6 *245:132 5.50052e-05
98 *152:12 *245:20 0.000264321
99 *152:18 *245:20 2.01791e-05
100 *152:46 *245:20 0.000114948
101 *154:10 *245:20 0
102 *157:75 *245:20 7.86787e-05
103 *158:83 *245:20 0
104 *160:150 *1300:S 0.000333668
105 *165:171 *245:33 0.000647644
106 *166:120 *1300:S 0.000201633
107 *167:122 *245:20 0.000264168
108 *168:30 *245:20 0
109 *203:12 *1298:S 1.59935e-05
*RES
1 *1289:Y *245:10 20.55 
2 *245:10 *245:20 39.8929 
3 *245:20 *1296:S 9.72857 
4 *245:20 *245:33 15.3929 
5 *245:33 *1292:S 15.1571 
6 *245:33 *245:46 7.96429 
7 *245:46 *1298:S 22.0411 
8 *245:46 *245:85 34.4464 
9 *245:85 *1294:S 9.72857 
10 *245:85 *245:102 16.8393 
11 *245:102 *1290:S 9.72857 
12 *245:102 *1300:S 26.2286 
13 *245:10 *245:132 26.5536 
14 *245:132 *1304:S 9.3 
15 *245:132 *1302:S 43.3 
*END

*D_NET *246 0.00155752
*CONN
*I *1291:A I *D sky130_fd_sc_hd__clkbuf_1
*I *1290:X O *D sky130_fd_sc_hd__mux2_1
*CAP
1 *1291:A 0.000391868
2 *1290:X 0.000391868
3 *1291:A *1480:CLK 1.18064e-05
4 *1291:A *1485:CLK 9.76046e-05
5 *1291:A *258:110 0.000162443
6 *1291:A *299:109 2.03615e-05
7 *1216:A2 *1291:A 0.000357562
8 *1258:S *1291:A 0
9 *1266:B1 *1291:A 0.00012401
*RES
1 *1290:X *1291:A 35.8679 
*END

*D_NET *247 0.00132102
*CONN
*I *1293:A I *D sky130_fd_sc_hd__clkbuf_1
*I *1292:X O *D sky130_fd_sc_hd__mux2_1
*CAP
1 *1293:A 0.000594903
2 *1292:X 0.000594903
3 *1293:A *1297:A 4.46186e-06
4 *142:132 *1293:A 0.00012675
5 *158:91 *1293:A 0
*RES
1 *1292:X *1293:A 37.9571 
*END

*D_NET *248 0.000791701
*CONN
*I *1295:A I *D sky130_fd_sc_hd__clkbuf_1
*I *1294:X O *D sky130_fd_sc_hd__mux2_1
*CAP
1 *1295:A 0.000185878
2 *1294:X 0.000185878
3 *1295:A *1294:A1 0.000124177
4 *1295:A *438:96 0.000177596
5 *172:98 *1295:A 0.000118172
*RES
1 *1294:X *1295:A 31.0107 
*END

*D_NET *249 0.000743934
*CONN
*I *1297:A I *D sky130_fd_sc_hd__clkbuf_1
*I *1296:X O *D sky130_fd_sc_hd__mux2_1
*CAP
1 *1297:A 0.000244937
2 *1296:X 0.000244937
3 *1297:A *1457:CLK 1.46624e-05
4 *1297:A *444:66 7.83659e-05
5 *1234:B1 *1297:A 5.71472e-05
6 *1293:A *1297:A 4.46186e-06
7 *1457:D *1297:A 8.91726e-05
8 *142:116 *1297:A 0
9 *142:132 *1297:A 1.02504e-05
10 *158:83 *1297:A 0
11 *158:91 *1297:A 0
*RES
1 *1296:X *1297:A 32.5107 
*END

*D_NET *250 0.000824724
*CONN
*I *1299:A I *D sky130_fd_sc_hd__clkbuf_1
*I *1298:X O *D sky130_fd_sc_hd__mux2_1
*CAP
1 *1299:A 0.000172905
2 *1298:X 0.000172905
3 *1299:A *333:16 6.05161e-06
4 *1225:B1 *1299:A 5.66971e-05
5 *1230:B1 *1299:A 0.000100165
6 *158:135 *1299:A 8.46936e-05
7 *203:12 *1299:A 0.000231307
*RES
1 *1298:X *1299:A 23.6893 
*END

*D_NET *251 0.00118018
*CONN
*I *1301:A I *D sky130_fd_sc_hd__clkbuf_1
*I *1300:X O *D sky130_fd_sc_hd__mux2_1
*CAP
1 *1301:A 0.000305153
2 *1300:X 0.000305153
3 *1301:A *1215:A1 3.69047e-06
4 *1301:A *1465:CLK 0.000171761
5 *1301:A *335:106 9.12967e-05
6 *1216:B1 *1301:A 1.32552e-05
7 *1221:A2 *1301:A 0.000170026
8 *1221:B2 *1301:A 0.000116964
9 *1258:A1 *1301:A 2.88018e-06
*RES
1 *1300:X *1301:A 33.7429 
*END

*D_NET *252 0.00168856
*CONN
*I *1303:A I *D sky130_fd_sc_hd__clkbuf_1
*I *1302:X O *D sky130_fd_sc_hd__mux2_1
*CAP
1 *1303:A 0.00026989
2 *1302:X 0.00026989
3 *1303:A *1207:A1 0.000443612
4 *1303:A *331:105 9.84673e-05
5 *1303:A *477:26 0.000527957
6 *1207:A2 *1303:A 6.05161e-06
7 *1207:B1 *1303:A 2.71192e-05
8 *1302:S *1303:A 3.23453e-05
9 *1460:D *1303:A 1.32293e-05
*RES
1 *1302:X *1303:A 35.85 
*END

*D_NET *253 0.000607876
*CONN
*I *1305:A I *D sky130_fd_sc_hd__clkbuf_1
*I *1304:X O *D sky130_fd_sc_hd__mux2_1
*CAP
1 *1305:A 0.000203798
2 *1304:X 0.000203798
3 *1305:A *1397:A0 0.000121307
4 *1305:A *1461:CLK 0
5 *1461:D *1305:A 7.89734e-05
*RES
1 *1304:X *1305:A 32.5107 
*END

*D_NET *254 0.0334327
*CONN
*I *1309:A I *D sky130_fd_sc_hd__inv_2
*I *1310:A I *D sky130_fd_sc_hd__inv_2
*I *1308:A I *D sky130_fd_sc_hd__inv_2
*I *1315:A I *D sky130_fd_sc_hd__inv_2
*I *1316:A I *D sky130_fd_sc_hd__inv_2
*I *1312:A I *D sky130_fd_sc_hd__inv_2
*I *1313:A I *D sky130_fd_sc_hd__inv_2
*I *1314:A I *D sky130_fd_sc_hd__inv_2
*I *1311:A I *D sky130_fd_sc_hd__inv_2
*I *1317:A I *D sky130_fd_sc_hd__inv_2
*I *1307:X O *D sky130_fd_sc_hd__clkbuf_8
*CAP
1 *1309:A 0
2 *1310:A 0
3 *1308:A 0
4 *1315:A 0
5 *1316:A 0.000369152
6 *1312:A 4.49481e-05
7 *1313:A 2.17614e-05
8 *1314:A 0.000199405
9 *1311:A 0.000134008
10 *1317:A 0.000837739
11 *1307:X 7.69167e-05
12 *254:129 0.00157191
13 *254:123 0.00168929
14 *254:113 0.00122674
15 *254:109 0.00359767
16 *254:82 0.00517833
17 *254:61 0.00240526
18 *254:46 0.00097435
19 *254:29 0.00161763
20 *254:8 0.00173092
21 *1312:A *1240:A0 5.14204e-05
22 *1313:A *1640:A 9.71197e-05
23 *1314:A *1492:CLK 2.27416e-05
24 *1316:A *413:30 0.000310941
25 *1317:A *1179:A2 0
26 *1317:A *1179:C1 5.33005e-05
27 *1317:A *1286:A_N 3.14193e-05
28 *1317:A *329:18 0
29 *1317:A *437:8 6.27058e-05
30 *254:8 *418:18 0.000134052
31 *254:8 *444:10 0.000131836
32 *254:29 *1180:A 0.000153047
33 *254:29 *418:12 1.02504e-05
34 *254:29 *418:18 0.0010559
35 *254:29 *444:10 0.000672016
36 *254:46 *1222:A0 0.000147603
37 *254:46 *1350:A 0.000175519
38 *254:46 *1355:S 0
39 *254:46 *1615:A 0.000158955
40 *254:46 *1640:A 3.34687e-05
41 *254:46 *268:37 0
42 *254:46 *418:12 0.000162832
43 *254:61 *1492:CLK 9.01334e-05
44 *254:61 *1640:A 0.000118349
45 *254:82 *1240:A0 2.58821e-05
46 *254:82 *1338:A 9.25014e-06
47 *254:82 *1428:S 0.000159989
48 *254:82 *1521:CLK 3.67142e-05
49 *254:82 *1640:A 8.46829e-05
50 *254:82 *299:46 8.38138e-05
51 *254:82 *334:8 5.41494e-05
52 *254:82 *425:55 0.000153054
53 *254:82 *437:112 7.4826e-05
54 *254:82 *455:74 2.77143e-05
55 *254:109 *1240:A0 5.38218e-05
56 *254:109 *1267:A0 4.51667e-05
57 *254:109 *1402:S 0.00012503
58 *254:109 *258:110 0
59 *254:109 *299:97 0.00032445
60 *254:109 *309:37 0.00169758
61 *254:109 *433:20 8.23597e-06
62 *254:113 *1266:A1 4.75812e-05
63 *254:113 *1267:A0 0
64 *254:113 *1592:A 0.000137045
65 *254:113 *342:12 7.79481e-05
66 *254:113 *431:18 0.000256152
67 *254:123 *1270:A2 0.000296844
68 *254:123 *431:18 0
69 *254:129 *1213:A0 0.00012012
70 *254:129 *1270:A1 0.000188077
71 *254:129 *1270:A2 0
72 *254:129 *1270:B1 3.0089e-05
73 *254:129 *1416:S 0.000561107
74 *254:129 *299:135 0
75 *254:129 *413:12 0
76 *254:129 *477:66 0.00103541
77 *254:129 *488:16 0
78 *1179:B1 *1317:A 5.71472e-05
79 *1213:S *254:129 0
80 *1214:A *1316:A 0.000228059
81 *1222:A1 *254:46 8.17657e-06
82 *1223:A *254:46 0
83 *1223:A *254:61 0
84 *1232:A *1313:A 9.71197e-05
85 *1232:A *254:82 0.000186669
86 *1241:A *254:82 5.19842e-06
87 *1249:A1 *1311:A 1.46231e-05
88 *1249:S *1311:A 0
89 *1258:A1 *254:113 0
90 *1463:RESET_B *254:129 0.000178202
91 *1465:RESET_B *254:113 0.000179656
92 *1466:RESET_B *254:46 0
93 *1469:RESET_B *254:46 0
94 *1470:RESET_B *254:129 0.000103437
95 *1475:D *1317:A 5.49489e-05
96 *1475:RESET_B *1317:A 0.000176036
97 *1484:D *254:82 7.02611e-05
98 *1492:D *1314:A 4.87669e-06
99 *1517:D *254:123 0
100 *1521:D *254:82 1.89513e-05
101 *157:10 *1317:A 0
102 *163:14 *1311:A 0.000172309
103 *163:14 *254:29 0
104 *163:24 *1311:A 1.24368e-05
105 *163:24 *254:46 0.000512566
106 *163:70 *254:82 0.000217842
107 *172:98 *254:109 2.09897e-05
108 *172:108 *254:109 4.87854e-05
*RES
1 *1307:X *254:8 16.9607 
2 *254:8 *1317:A 34.2643 
3 *254:8 *254:29 25.625 
4 *254:29 *1311:A 16.4071 
5 *254:29 *254:46 17.4821 
6 *254:46 *1314:A 16.6036 
7 *254:46 *254:61 7.66071 
8 *254:61 *1313:A 10.2464 
9 *254:61 *254:82 45.4286 
10 *254:82 *1312:A 10.5321 
11 *254:82 *254:109 30.4997 
12 *254:109 *254:113 21.9286 
13 *254:113 *254:123 13.625 
14 *254:123 *254:129 38.2679 
15 *254:129 *1316:A 17.675 
16 *254:129 *1315:A 9.3 
17 *254:123 *1308:A 9.3 
18 *254:113 *1310:A 13.8 
19 *254:109 *1309:A 9.3 
*END

*D_NET *255 0.00109598
*CONN
*I *1363:B I *D sky130_fd_sc_hd__and3b_1
*I *1327:A I *D sky130_fd_sc_hd__and2_1
*I *1345:C I *D sky130_fd_sc_hd__and3b_1
*I *1325:X O *D sky130_fd_sc_hd__and4b_1
*CAP
1 *1363:B 7.348e-05
2 *1327:A 2.09069e-05
3 *1345:C 1.86046e-05
4 *1325:X 9.5876e-05
5 *255:19 0.00019964
6 *255:8 0.000219733
7 *1327:A *1327:B 1.33343e-05
8 *1345:C *268:18 5.50052e-05
9 *1345:C *514:53 3.54697e-06
10 *1345:C *514:59 1.29975e-05
11 *1363:B *1327:B 8.00806e-05
12 *1363:B *1345:A_N 7.80929e-05
13 *1363:B *258:14 0
14 *255:8 *1345:A_N 1.90223e-05
15 *255:8 *514:53 3.75868e-05
16 *255:19 *1345:A_N 7.04641e-05
17 *1399:C *255:8 4.2383e-05
18 *168:30 *1327:A 5.52302e-05
*RES
1 *1325:X *255:8 16.05 
2 *255:8 *1345:C 14.3357 
3 *255:8 *255:19 1.94643 
4 *255:19 *1327:A 14.3357 
5 *255:19 *1363:B 15.7464 
*END

*D_NET *256 0.00294032
*CONN
*I *1400:A I *D sky130_fd_sc_hd__and2_1
*I *1327:B I *D sky130_fd_sc_hd__and2_1
*I *1326:Y O *D sky130_fd_sc_hd__nor2_1
*CAP
1 *1400:A 0.000123081
2 *1327:B 0.000316328
3 *1326:Y 0.000301541
4 *256:10 0.00074095
5 *1327:B *1328:A 0
6 *1327:B *1345:A_N 5.05667e-05
7 *1327:B *1436:A_N 1.30798e-05
8 *1327:B *514:115 0.000167633
9 *1327:B *515:65 7.40526e-05
10 *1400:A *1400:B 5.52238e-05
11 *1400:A *1401:A 9.16074e-05
12 *1400:A *1436:A_N 5.33005e-05
13 *1400:A *297:25 1.60597e-05
14 *1400:A *515:61 0.000343634
15 *1400:A *515:91 5.33005e-05
16 *1400:A *515:102 4.81734e-05
17 *256:10 *1326:A 0
18 *256:10 *1647:A 0
19 *256:10 *435:52 0.000269428
20 *256:10 *514:115 8.00806e-05
21 *1327:A *1327:B 1.33343e-05
22 *1363:B *1327:B 8.00806e-05
23 *168:30 *1327:B 4.88637e-05
*RES
1 *1326:Y *256:10 18.3357 
2 *256:10 *1327:B 20.6393 
3 *256:10 *1400:A 18.0679 
*END

*D_NET *257 0.00035256
*CONN
*I *1328:A I *D sky130_fd_sc_hd__clkbuf_4
*I *1327:X O *D sky130_fd_sc_hd__and2_1
*CAP
1 *1328:A 0.000142912
2 *1327:X 0.000142912
3 *1328:A *258:14 4.94455e-05
4 *1327:B *1328:A 0
5 *168:30 *1328:A 1.72894e-05
*RES
1 *1327:X *1328:A 30.0821 
*END

*D_NET *258 0.0257131
*CONN
*I *1335:S I *D sky130_fd_sc_hd__mux2_1
*I *1331:S I *D sky130_fd_sc_hd__mux2_1
*I *1329:S I *D sky130_fd_sc_hd__mux2_1
*I *1339:S I *D sky130_fd_sc_hd__mux2_1
*I *1333:S I *D sky130_fd_sc_hd__mux2_1
*I *1337:S I *D sky130_fd_sc_hd__mux2_1
*I *1341:S I *D sky130_fd_sc_hd__mux2_1
*I *1343:S I *D sky130_fd_sc_hd__mux2_1
*I *1328:X O *D sky130_fd_sc_hd__clkbuf_4
*CAP
1 *1335:S 0
2 *1331:S 0
3 *1329:S 0.000124239
4 *1339:S 0.000383289
5 *1333:S 0
6 *1337:S 0.000111371
7 *1341:S 0.000577022
8 *1343:S 2.23854e-05
9 *1328:X 1.40355e-05
10 *258:110 0.0023058
11 *258:85 0.00264193
12 *258:60 0.00132363
13 *258:56 0.000964046
14 *258:40 0.00174618
15 *258:14 0.0015366
16 *258:8 0.00210197
17 *1329:S *1329:A0 5.45307e-05
18 *1329:S *1329:A1 8.34469e-05
19 *1329:S *1330:A 4.81734e-05
20 *1339:S *1221:A1 0.000161132
21 *1339:S *1340:A 0.000201254
22 *1339:S *466:10 0
23 *1341:S *1212:A1 0.000593707
24 *1341:S *1342:A 4.82865e-05
25 *1341:S *1343:A0 9.31893e-05
26 *1341:S *1581:A 8.71761e-05
27 *1343:S *1343:A0 0
28 *258:8 *1364:A 5.52302e-05
29 *258:14 *1193:A1 1.56e-05
30 *258:14 *1343:A0 5.62995e-05
31 *258:14 *1344:A 0.000185643
32 *258:14 *1361:A1 5.33005e-05
33 *258:14 *1361:S 0.00031155
34 *258:14 *1581:A 4.35567e-05
35 *258:14 *514:115 0
36 *258:40 *1326:A 0
37 *258:40 *1335:A0 1.85443e-05
38 *258:40 *1364:A 4.30454e-05
39 *258:40 *1401:A 0.000150625
40 *258:40 *1418:C 0
41 *258:40 *1419:A 0.000292708
42 *258:40 *1444:S 0
43 *258:40 *1523:CLK 5.71472e-05
44 *258:40 *278:61 0.000118342
45 *258:40 *299:14 0
46 *258:40 *309:10 0.000866095
47 *258:40 *309:23 0.00017309
48 *258:40 *444:81 0.00010911
49 *258:40 *514:115 0
50 *258:56 *1257:A1 5.20669e-05
51 *258:56 *1331:A0 1.83136e-05
52 *258:56 *1335:A0 6.07232e-05
53 *258:56 *1483:CLK 0
54 *258:56 *299:22 1.91418e-05
55 *258:56 *437:112 0
56 *258:60 *1230:A1 0.000149601
57 *258:60 *1331:A0 0.000261851
58 *258:60 *1483:CLK 0.000193969
59 *258:85 *1230:A1 0.000117189
60 *258:85 *1248:A1 0.000383393
61 *258:85 *1337:A0 0
62 *258:85 *1351:A0 0.000227532
63 *258:85 *1351:A1 0.00018372
64 *258:85 *1351:S 0.000627256
65 *258:85 *422:50 0
66 *258:85 *433:50 0.000340952
67 *258:85 *438:75 0.000573581
68 *258:85 *455:50 0
69 *258:110 *1248:A1 2.44318e-05
70 *258:110 *1294:A1 0
71 *258:110 *1329:A1 0.000351157
72 *258:110 *1330:A 0.000182592
73 *258:110 *1351:S 0.000100684
74 *258:110 *1480:CLK 0.000129868
75 *258:110 *299:109 1.70307e-05
76 *258:110 *339:14 2.14658e-05
77 *258:110 *433:22 0
78 *1193:B1 *258:14 5.33005e-05
79 *1194:B1 *258:14 0.000870244
80 *1212:B1 *1341:S 3.8416e-05
81 *1212:B2 *1341:S 5.52302e-05
82 *1216:A2 *1339:S 1.26432e-05
83 *1230:A2 *258:60 0
84 *1239:B1 *258:56 0.000158768
85 *1248:B2 *258:85 5.04589e-05
86 *1249:A1 *258:40 1.72894e-05
87 *1257:B1 *258:56 0.000228784
88 *1257:B2 *258:60 0
89 *1257:B2 *258:85 0
90 *1258:S *1339:S 0.000169902
91 *1291:A *258:110 0.000162443
92 *1328:A *258:14 4.94455e-05
93 *1363:B *258:14 0
94 *1480:D *1329:S 3.88609e-05
95 *1523:D *258:40 0.000187999
96 *1537:A *258:56 0.000199698
97 *158:45 *258:8 2.89114e-05
98 *158:135 *1337:S 7.82431e-05
99 *158:158 *258:110 0.00034961
100 *163:191 *258:40 1.90936e-05
101 *165:171 *258:60 0
102 *168:30 *258:14 0.000333419
103 *168:38 *258:14 0.000383695
104 *176:24 *258:40 0.000100936
105 *219:12 *258:56 0.000315887
106 *254:109 *258:110 0
*RES
1 *1328:X *258:8 14.3357 
2 *258:8 *258:14 28.125 
3 *258:14 *1343:S 9.72857 
4 *258:14 *1341:S 21.8893 
5 *258:8 *258:40 30.9464 
6 *258:40 *258:56 31.6429 
7 *258:56 *258:60 12.2143 
8 *258:60 *1337:S 15.9786 
9 *258:60 *258:85 26.9821 
10 *258:85 *1333:S 9.3 
11 *258:85 *258:110 26.6464 
12 *258:110 *1339:S 26.3357 
13 *258:110 *1329:S 12.7464 
14 *258:56 *1331:S 9.3 
15 *258:40 *1335:S 9.3 
*END

*D_NET *259 0.000444776
*CONN
*I *1330:A I *D sky130_fd_sc_hd__clkbuf_1
*I *1329:X O *D sky130_fd_sc_hd__mux2_1
*CAP
1 *1330:A 9.00526e-05
2 *1329:X 9.00526e-05
3 *1329:S *1330:A 4.81734e-05
4 *1480:D *1330:A 3.39053e-05
5 *258:110 *1330:A 0.000182592
*RES
1 *1329:X *1330:A 21.1 
*END

*D_NET *260 0.000989527
*CONN
*I *1332:A I *D sky130_fd_sc_hd__clkbuf_1
*I *1331:X O *D sky130_fd_sc_hd__mux2_1
*CAP
1 *1332:A 0.000256751
2 *1331:X 0.000256751
3 *1332:A *1230:A1 8.12788e-05
4 *1230:A2 *1332:A 4.5632e-05
5 *1481:D *1332:A 0.000291941
6 *165:171 *1332:A 5.7173e-05
*RES
1 *1331:X *1332:A 33.8679 
*END

*D_NET *261 0.0020966
*CONN
*I *1334:A I *D sky130_fd_sc_hd__clkbuf_1
*I *1333:X O *D sky130_fd_sc_hd__mux2_1
*CAP
1 *1334:A 0.000347158
2 *1333:X 0.000347158
3 *1334:A *1351:S 9.60939e-05
4 *1334:A *1545:A 0.000236333
5 *1334:A *278:61 0
6 *1334:A *336:34 0.000572143
7 *1248:A2 *1334:A 1.02504e-05
8 *1248:B1 *1334:A 0
9 *1482:D *1334:A 0.00048746
*RES
1 *1333:X *1334:A 37.1714 
*END

*D_NET *262 0.000776901
*CONN
*I *1336:A I *D sky130_fd_sc_hd__clkbuf_1
*I *1335:X O *D sky130_fd_sc_hd__mux2_1
*CAP
1 *1336:A 0.000294568
2 *1335:X 0.000294568
3 *1336:A *1408:A0 0
4 *1336:A *1409:A 0.000159855
5 *1336:A *330:50 0
6 *1336:A *372:12 2.79092e-05
7 *1336:A *444:81 0
8 *1336:A *444:83 0
*RES
1 *1335:X *1336:A 32.9214 
*END

*D_NET *263 0.00101053
*CONN
*I *1338:A I *D sky130_fd_sc_hd__clkbuf_1
*I *1337:X O *D sky130_fd_sc_hd__mux2_1
*CAP
1 *1338:A 0.000198785
2 *1337:X 0.000198785
3 *1338:A *425:55 0.000282465
4 *1338:A *437:112 0.000311766
5 *158:135 *1338:A 9.47843e-06
6 *254:82 *1338:A 9.25014e-06
*RES
1 *1337:X *1338:A 32.6179 
*END

*D_NET *264 0.000880464
*CONN
*I *1340:A I *D sky130_fd_sc_hd__clkbuf_1
*I *1339:X O *D sky130_fd_sc_hd__mux2_1
*CAP
1 *1340:A 0.000178089
2 *1339:X 0.000178089
3 *1340:A *1485:CLK 0.00013921
4 *1258:S *1340:A 8.80099e-05
5 *1339:S *1340:A 0.000201254
6 *1485:D *1340:A 9.58126e-05
*RES
1 *1339:X *1340:A 31.85 
*END

*D_NET *265 0.000718133
*CONN
*I *1342:A I *D sky130_fd_sc_hd__clkbuf_1
*I *1341:X O *D sky130_fd_sc_hd__mux2_1
*CAP
1 *1342:A 0.000272734
2 *1341:X 0.000272734
3 *1342:A *1486:CLK 6.05161e-06
4 *1342:A *1584:A 3.99614e-06
5 *1342:A *331:133 9.97164e-05
6 *1212:B2 *1342:A 0
7 *1341:S *1342:A 4.82865e-05
8 *1486:D *1342:A 1.46148e-05
*RES
1 *1341:X *1342:A 31.975 
*END

*D_NET *266 0.00124737
*CONN
*I *1344:A I *D sky130_fd_sc_hd__clkbuf_1
*I *1343:X O *D sky130_fd_sc_hd__mux2_1
*CAP
1 *1344:A 0.000241445
2 *1343:X 0.000241445
3 *1344:A *1201:A1 0
4 *1344:A *1343:A1 0.000128154
5 *1344:A *488:32 0.00018459
6 *1204:A1 *1344:A 0.000266092
7 *258:14 *1344:A 0.000185643
*RES
1 *1343:X *1344:A 33.4393 
*END

*D_NET *267 0.000228015
*CONN
*I *1346:A I *D sky130_fd_sc_hd__clkbuf_4
*I *1345:X O *D sky130_fd_sc_hd__and3b_1
*CAP
1 *1346:A 8.05372e-05
2 *1345:X 8.05372e-05
3 *1346:A *268:18 6.69403e-05
*RES
1 *1345:X *1346:A 19.975 
*END

*D_NET *268 0.0304558
*CONN
*I *1359:S I *D sky130_fd_sc_hd__mux2_1
*I *1351:S I *D sky130_fd_sc_hd__mux2_1
*I *1347:S I *D sky130_fd_sc_hd__mux2_1
*I *1357:S I *D sky130_fd_sc_hd__mux2_1
*I *1361:S I *D sky130_fd_sc_hd__mux2_1
*I *1355:S I *D sky130_fd_sc_hd__mux2_1
*I *1349:S I *D sky130_fd_sc_hd__mux2_1
*I *1353:S I *D sky130_fd_sc_hd__mux2_1
*I *1346:X O *D sky130_fd_sc_hd__clkbuf_4
*CAP
1 *1359:S 0.000338794
2 *1351:S 0.000991504
3 *1347:S 0.00038474
4 *1357:S 2.26886e-05
5 *1361:S 5.74677e-05
6 *1355:S 0.000440519
7 *1349:S 0.000104931
8 *1353:S 4.7051e-05
9 *1346:X 0
10 *268:101 0.00192835
11 *268:86 0.0016429
12 *268:75 0.00130665
13 *268:67 0.00164738
14 *268:37 0.00132364
15 *268:26 0.00125373
16 *268:18 0.00267425
17 *268:4 0.00337327
18 *1347:S *1347:A0 2.79421e-05
19 *1347:S *1383:A0 5.74499e-06
20 *1349:S *1349:A0 1.32552e-05
21 *1349:S *1349:A1 3.1367e-05
22 *1349:S *1350:A 3.41517e-06
23 *1351:S *1351:A0 5.33334e-05
24 *1351:S *1383:A1 3.69697e-05
25 *1351:S *1488:CLK 2.27416e-05
26 *1351:S *319:78 6.81083e-05
27 *1351:S *339:14 0.000104869
28 *1353:S *1353:A0 9.99853e-05
29 *1353:S *444:31 0.000185118
30 *1355:S *1349:A0 3.84349e-05
31 *1355:S *333:20 1.34548e-05
32 *1357:S *1357:A1 0.000142152
33 *1357:S *425:22 0.000142152
34 *1359:S *1206:B2 5.96516e-05
35 *1359:S *1359:A1 1.02301e-05
36 *1359:S *1395:A0 1.4796e-05
37 *1359:S *1581:A 0.000224582
38 *1359:S *331:34 0.000180875
39 *1359:S *477:26 1.84776e-05
40 *268:18 *1152:A 2.11336e-05
41 *268:18 *1152:B 0.000229295
42 *268:18 *1345:A_N 1.0484e-05
43 *268:18 *288:68 0.000217455
44 *268:18 *499:8 4.71971e-05
45 *268:18 *499:19 0.000127466
46 *268:18 *514:53 6.26598e-06
47 *268:18 *514:59 6.90592e-06
48 *268:18 *516:53 8.10737e-06
49 *268:18 *516:59 1.54821e-05
50 *268:37 *1233:B2 0.000255828
51 *268:37 *1350:A 0
52 *268:37 *1566:A 0.00012573
53 *268:67 *1362:A 8.6608e-06
54 *268:67 *1495:CLK 3.74966e-05
55 *268:67 *331:23 0.000104179
56 *268:67 *331:34 3.78432e-05
57 *268:75 *1193:A1 0.000117675
58 *268:75 *352:12 6.60491e-05
59 *268:75 *435:52 2.09177e-05
60 *268:86 *1210:A1 1.21317e-05
61 *268:86 *1448:A0 0
62 *268:86 *1450:A1 0.00021303
63 *268:86 *1578:A 9.10431e-06
64 *268:86 *319:38 0.000533931
65 *268:86 *319:47 0.000227991
66 *268:86 *319:78 0.00051672
67 *268:86 *328:36 0
68 *268:86 *332:10 2.41224e-05
69 *268:86 *390:12 0.000148903
70 *268:86 *435:52 0.000244665
71 *268:86 *488:108 0.000477998
72 *268:101 *1383:A1 2.26327e-05
73 *268:101 *1383:S 0.000245856
74 *268:101 *1393:S 4.19771e-05
75 *268:101 *1544:A 0
76 *268:101 *319:78 0.000975453
77 *268:101 *328:20 0
78 *1165:A *268:18 5.49489e-05
79 *1165:B *268:18 0.000308586
80 *1178:B *268:18 0.000381432
81 *1185:A1 *268:26 2.84026e-05
82 *1185:A2 *268:26 0.000473939
83 *1185:B1_N *268:26 5.81208e-05
84 *1302:S *1359:S 0.00030892
85 *1318:A *268:18 0.000106542
86 *1334:A *1351:S 9.60939e-05
87 *1345:C *268:18 5.50052e-05
88 *1346:A *268:18 6.69403e-05
89 *1399:C *268:18 0.000179295
90 *1399:D *268:18 0.000140264
91 *1472:RESET_B *268:18 0.000177227
92 *1488:D *1351:S 4.87669e-06
93 *1494:D *268:67 4.4116e-05
94 *1494:D *268:75 8.02652e-05
95 *1495:D *268:67 0.000107692
96 *1501:D *268:86 0.000150618
97 *1505:D *268:37 3.84349e-05
98 *1507:D *268:37 5.14943e-05
99 *148:6 *268:18 8.25843e-06
100 *152:72 *268:18 5.4315e-05
101 *157:10 *268:18 0.000354078
102 *157:60 *268:26 0.000178503
103 *158:12 *268:18 0.000318129
104 *163:45 *1355:S 0.00015577
105 *163:203 *268:86 0
106 *165:63 *268:86 0
107 *167:84 *1347:S 0.000369736
108 *168:16 *268:18 0.000101619
109 *168:38 *1361:S 0.00031155
110 *203:12 *1355:S 1.62621e-05
111 *219:12 *1351:S 0.000440711
112 *254:46 *1355:S 0
113 *254:46 *268:37 0
114 *258:14 *1361:S 0.00031155
115 *258:85 *1351:S 0.000627256
116 *258:110 *1351:S 0.000100684
*RES
1 *1346:X *268:4 9.3 
2 *268:4 *268:18 47.8036 
3 *268:18 *268:26 17.6429 
4 *268:26 *1353:S 15.5679 
5 *268:26 *268:37 14.6964 
6 *268:37 *1349:S 16.0143 
7 *268:37 *1355:S 21.9071 
8 *268:4 *268:67 14.7143 
9 *268:67 *268:75 8.625 
10 *268:75 *1361:S 16.8 
11 *268:75 *268:86 26.5357 
12 *268:86 *1357:S 15.1571 
13 *268:86 *268:101 13.8393 
14 *268:101 *1347:S 19.175 
15 *268:101 *1351:S 32.7821 
16 *268:67 *1359:S 17.175 
*END

*D_NET *269 0.000971802
*CONN
*I *1348:A I *D sky130_fd_sc_hd__clkbuf_1
*I *1347:X O *D sky130_fd_sc_hd__mux2_1
*CAP
1 *1348:A 0.000214451
2 *1347:X 0.000214451
3 *1348:A *1383:A0 0.000111594
4 *1348:A *1383:A1 9.41642e-05
5 *1348:A *1384:A 5.08533e-05
6 *1504:D *1348:A 2.44495e-05
7 *167:84 *1348:A 0.000261839
*RES
1 *1347:X *1348:A 32.975 
*END

*D_NET *270 0.00113953
*CONN
*I *1350:A I *D sky130_fd_sc_hd__clkbuf_1
*I *1349:X O *D sky130_fd_sc_hd__mux2_1
*CAP
1 *1350:A 0.000368008
2 *1349:X 0.000368008
3 *1350:A *333:39 0.000224583
4 *1349:S *1350:A 3.41517e-06
5 *254:46 *1350:A 0.000175519
6 *268:37 *1350:A 0
*RES
1 *1349:X *1350:A 34.6357 
*END

*D_NET *271 0.00084663
*CONN
*I *1352:A I *D sky130_fd_sc_hd__clkbuf_1
*I *1351:X O *D sky130_fd_sc_hd__mux2_1
*CAP
1 *1352:A 0.00031284
2 *1351:X 0.00031284
3 *1352:A *1490:CLK 5.41609e-05
4 *1257:B2 *1352:A 2.56694e-05
5 *1490:D *1352:A 5.50964e-05
6 *158:135 *1352:A 7.65766e-06
7 *167:65 *1352:A 7.83659e-05
*RES
1 *1351:X *1352:A 32.6714 
*END

*D_NET *272 0.000146503
*CONN
*I *1354:A I *D sky130_fd_sc_hd__clkbuf_1
*I *1353:X O *D sky130_fd_sc_hd__mux2_1
*CAP
1 *1354:A 7.32514e-05
2 *1353:X 7.32514e-05
*RES
1 *1353:X *1354:A 19.8679 
*END

*D_NET *273 0.000350896
*CONN
*I *1356:A I *D sky130_fd_sc_hd__clkbuf_1
*I *1355:X O *D sky130_fd_sc_hd__mux2_1
*CAP
1 *1356:A 9.57113e-05
2 *1355:X 9.57113e-05
3 *1356:A *1355:A0 4.04221e-05
4 *1356:A *333:20 5.65955e-05
5 *163:45 *1356:A 6.24558e-05
*RES
1 *1355:X *1356:A 29.7786 
*END

*D_NET *274 0.000189824
*CONN
*I *1358:A I *D sky130_fd_sc_hd__clkbuf_1
*I *1357:X O *D sky130_fd_sc_hd__mux2_1
*CAP
1 *1358:A 4.26814e-05
2 *1357:X 4.26814e-05
3 *1358:A *425:22 4.2481e-05
4 *172:53 *1358:A 6.19799e-05
*RES
1 *1357:X *1358:A 19.8679 
*END

*D_NET *275 0.00102665
*CONN
*I *1360:A I *D sky130_fd_sc_hd__clkbuf_1
*I *1359:X O *D sky130_fd_sc_hd__mux2_1
*CAP
1 *1360:A 0.000222035
2 *1359:X 0.000222035
3 *1360:A *331:105 9.67754e-05
4 *1206:A2 *1360:A 7.89362e-05
5 *1206:B1 *1360:A 1.21258e-05
6 *1302:S *1360:A 0.000394738
*RES
1 *1359:X *1360:A 33.2071 
*END

*D_NET *276 0.00135447
*CONN
*I *1362:A I *D sky130_fd_sc_hd__clkbuf_1
*I *1361:X O *D sky130_fd_sc_hd__mux2_1
*CAP
1 *1362:A 0.000450953
2 *1361:X 0.000450953
3 *1362:A *1194:A1 0
4 *1362:A *1495:CLK 0.000272338
5 *1362:A *1503:CLK 4.46186e-06
6 *1362:A *331:12 3.62206e-05
7 *1362:A *331:23 9.84729e-05
8 *1495:D *1362:A 3.24049e-05
9 *268:67 *1362:A 8.6608e-06
*RES
1 *1361:X *1362:A 34.4214 
*END

*D_NET *277 0.000954977
*CONN
*I *1364:A I *D sky130_fd_sc_hd__clkbuf_4
*I *1363:X O *D sky130_fd_sc_hd__and3b_1
*CAP
1 *1364:A 0.000362182
2 *1363:X 0.000362182
3 *158:45 *1364:A 0.000132337
4 *258:8 *1364:A 5.52302e-05
5 *258:40 *1364:A 4.30454e-05
*RES
1 *1363:X *1364:A 32.7607 
*END

*D_NET *278 0.0209257
*CONN
*I *1371:S I *D sky130_fd_sc_hd__mux2_1
*I *1367:S I *D sky130_fd_sc_hd__mux2_1
*I *1373:S I *D sky130_fd_sc_hd__mux2_1
*I *1369:S I *D sky130_fd_sc_hd__mux2_1
*I *1365:S I *D sky130_fd_sc_hd__mux2_1
*I *1375:S I *D sky130_fd_sc_hd__mux2_1
*I *1377:S I *D sky130_fd_sc_hd__mux2_1
*I *1379:S I *D sky130_fd_sc_hd__mux2_1
*I *1364:X O *D sky130_fd_sc_hd__clkbuf_4
*CAP
1 *1371:S 0
2 *1367:S 0
3 *1373:S 0.000445047
4 *1369:S 0
5 *1365:S 0.000609497
6 *1375:S 0.000207886
7 *1377:S 0
8 *1379:S 0
9 *1364:X 0.00014086
10 *278:75 0.00142896
11 *278:65 0.00144483
12 *278:61 0.00191796
13 *278:53 0.00218777
14 *278:31 0.000954996
15 *278:20 0.000944808
16 *278:8 0.000788696
17 *1365:S *1369:A0 1.0484e-05
18 *1365:S *1439:A 0.000228758
19 *1365:S *1638:A 0
20 *1365:S *336:97 0.000197809
21 *1365:S *355:10 0
22 *1373:S *1440:A0 1.67561e-05
23 *1373:S *1440:A1 3.41848e-05
24 *1373:S *1446:S 0.000459299
25 *1373:S *319:106 5.49995e-05
26 *1373:S *334:104 2.85234e-05
27 *1375:S *1547:A 1.00887e-05
28 *278:8 *1401:A 0
29 *278:8 *1437:A 0
30 *278:8 *299:14 6.0038e-05
31 *278:20 *1379:A0 9.77423e-05
32 *278:20 *1444:S 0.000118604
33 *278:20 *319:27 0.000159684
34 *278:20 *435:52 0.000719165
35 *278:31 *1201:A1 6.26559e-05
36 *278:31 *1379:A0 1.54142e-05
37 *278:31 *1527:CLK 0.00018372
38 *278:31 *1541:A 9.58181e-05
39 *278:31 *332:10 8.71761e-05
40 *278:31 *435:52 0.000310518
41 *278:53 *1371:A0 4.84073e-05
42 *278:53 *1437:A 0
43 *278:53 *299:14 0.000923713
44 *278:61 *1367:A0 0.000230475
45 *278:61 *1370:A 0
46 *278:61 *1427:A 0.000189584
47 *278:61 *1618:A 0
48 *278:61 *299:14 0.000150718
49 *278:61 *309:23 0.00126723
50 *278:61 *309:89 0.000158956
51 *278:61 *433:50 7.83659e-05
52 *278:61 *434:12 0
53 *278:61 *438:96 3.82066e-05
54 *278:65 *1440:A1 0.000127814
55 *278:75 *1369:A0 4.58194e-05
56 *1190:A *278:53 0.000259313
57 *1201:A2 *1375:S 0.000196677
58 *1201:A2 *278:31 0.000402698
59 *1228:B1 *278:75 0.000748791
60 *1248:A2 *278:61 0
61 *1248:B1 *278:61 0.000149911
62 *1248:B2 *278:61 0
63 *1256:C1 *278:61 0.00015289
64 *1334:A *278:61 0
65 *1523:D *278:61 0.00034251
66 *1526:D *1375:S 0
67 *1528:D *1365:S 4.83987e-05
68 *160:70 *278:53 0.000324241
69 *166:10 *278:61 0
70 *172:108 *278:61 0
71 *175:63 *1375:S 0.000181241
72 *175:86 *278:61 9.15842e-06
73 *176:87 *1365:S 0.000444066
74 *176:95 *278:75 0.000265445
75 *258:40 *278:61 0.000118342
*RES
1 *1364:X *278:8 15.7464 
2 *278:8 *278:20 13.4286 
3 *278:20 *1379:S 9.3 
4 *278:20 *278:31 20.9643 
5 *278:31 *1377:S 13.8 
6 *278:31 *1375:S 18.7821 
7 *278:8 *278:53 17.7143 
8 *278:53 *278:61 49 
9 *278:61 *278:65 7.66071 
10 *278:65 *278:75 17 
11 *278:75 *1365:S 31.6571 
12 *278:75 *1369:S 9.3 
13 *278:65 *1373:S 22.7643 
14 *278:61 *1367:S 9.3 
15 *278:53 *1371:S 9.3 
*END

*D_NET *279 0.00153972
*CONN
*I *1366:A I *D sky130_fd_sc_hd__clkbuf_1
*I *1365:X O *D sky130_fd_sc_hd__mux2_1
*CAP
1 *1366:A 0.000739658
2 *1365:X 0.000739658
3 *1366:A *1365:A0 3.18676e-05
4 *1366:A *1595:A 0
5 *1496:D *1366:A 2.85321e-05
*RES
1 *1365:X *1366:A 37.8857 
*END

*D_NET *280 0.000479298
*CONN
*I *1368:A I *D sky130_fd_sc_hd__clkbuf_1
*I *1367:X O *D sky130_fd_sc_hd__mux2_1
*CAP
1 *1368:A 0.000221286
2 *1367:X 0.000221286
3 *1497:D *1368:A 3.67252e-05
*RES
1 *1367:X *1368:A 22.3321 
*END

*D_NET *281 0.000483721
*CONN
*I *1370:A I *D sky130_fd_sc_hd__clkbuf_1
*I *1369:X O *D sky130_fd_sc_hd__mux2_1
*CAP
1 *1370:A 0.000118
2 *1369:X 0.000118
3 *1370:A *434:12 0.000148685
4 *175:86 *1370:A 9.90367e-05
5 *278:61 *1370:A 0
*RES
1 *1369:X *1370:A 30.4929 
*END

*D_NET *282 0.000767196
*CONN
*I *1372:A I *D sky130_fd_sc_hd__clkbuf_1
*I *1371:X O *D sky130_fd_sc_hd__mux2_1
*CAP
1 *1372:A 0.000174582
2 *1371:X 0.000174582
3 *1372:A *1534:CLK 6.48098e-05
4 *1372:A *309:10 3.9733e-05
5 *1372:A *330:65 0.000141036
6 *1499:D *1372:A 0.000172454
*RES
1 *1371:X *1372:A 32.3679 
*END

*D_NET *283 0.00119147
*CONN
*I *1374:A I *D sky130_fd_sc_hd__clkbuf_1
*I *1373:X O *D sky130_fd_sc_hd__mux2_1
*CAP
1 *1374:A 0.000457612
2 *1373:X 0.000457612
3 *1374:A *1529:CLK 0
4 *1374:A *1650:A 3.5707e-05
5 *1374:A *1654:A 7.27536e-05
6 *1374:A *425:67 0.000112561
7 *1374:A *437:122 5.52238e-05
8 *1529:D *1374:A 0
*RES
1 *1373:X *1374:A 36.0286 
*END

*D_NET *284 0.000499377
*CONN
*I *1376:A I *D sky130_fd_sc_hd__clkbuf_1
*I *1375:X O *D sky130_fd_sc_hd__mux2_1
*CAP
1 *1376:A 0.000112797
2 *1375:X 0.000112797
3 *1376:A *1448:A1 0.000261347
4 *1376:A *1448:S 1.24368e-05
*RES
1 *1375:X *1376:A 21.5107 
*END

*D_NET *285 0.000614981
*CONN
*I *1378:A I *D sky130_fd_sc_hd__clkbuf_1
*I *1377:X O *D sky130_fd_sc_hd__mux2_1
*CAP
1 *1378:A 0.000158541
2 *1377:X 0.000158541
3 *1378:A *1210:A1 0.000131223
4 *1378:A *1450:A1 0.000166676
*RES
1 *1377:X *1378:A 22.35 
*END

*D_NET *286 0.00107514
*CONN
*I *1380:A I *D sky130_fd_sc_hd__clkbuf_1
*I *1379:X O *D sky130_fd_sc_hd__mux2_1
*CAP
1 *1380:A 0.000344313
2 *1379:X 0.000344313
3 *1380:A *1437:A 0
4 *1380:A *1503:CLK 0.000127439
5 *1380:A *1540:A 2.11543e-05
6 *1380:A *435:52 9.90431e-05
7 *1194:A2 *1380:A 0
8 *158:45 *1380:A 0.000138881
*RES
1 *1379:X *1380:A 34.1 
*END

*D_NET *287 0.000233513
*CONN
*I *1382:A I *D sky130_fd_sc_hd__clkbuf_4
*I *1381:X O *D sky130_fd_sc_hd__or3b_1
*CAP
1 *1382:A 9.26559e-05
2 *1381:X 9.26559e-05
3 *1382:A *1162:A 0
4 *1382:A *1381:A 6.05161e-06
5 *1382:A *329:62 1.02821e-05
6 *1164:A *1382:A 3.18676e-05
*RES
1 *1381:X *1382:A 19.975 
*END

*D_NET *288 0.0303031
*CONN
*I *1389:S I *D sky130_fd_sc_hd__mux2_1
*I *1391:S I *D sky130_fd_sc_hd__mux2_1
*I *1385:S I *D sky130_fd_sc_hd__mux2_1
*I *1383:S I *D sky130_fd_sc_hd__mux2_1
*I *1393:S I *D sky130_fd_sc_hd__mux2_1
*I *1387:S I *D sky130_fd_sc_hd__mux2_1
*I *1397:S I *D sky130_fd_sc_hd__mux2_1
*I *1395:S I *D sky130_fd_sc_hd__mux2_1
*I *1382:X O *D sky130_fd_sc_hd__clkbuf_4
*CAP
1 *1389:S 0
2 *1391:S 0.000368094
3 *1385:S 0
4 *1383:S 0.000149102
5 *1393:S 0.000693905
6 *1387:S 3.02363e-05
7 *1397:S 1.4924e-05
8 *1395:S 0.000357694
9 *1382:X 4.33592e-05
10 *288:111 0.00196705
11 *288:100 0.00345759
12 *288:78 0.00230331
13 *288:76 0.000736736
14 *288:68 0.00165893
15 *288:38 0.000393986
16 *288:36 0.00248613
17 *288:8 0.00379842
18 *1383:S *1215:B1 0
19 *1383:S *1383:A1 5.33072e-05
20 *1387:S *363:14 1.87331e-05
21 *1391:S *1251:A1 8.29995e-05
22 *1391:S *362:10 5.80706e-06
23 *1391:S *455:33 1.19309e-05
24 *1393:S *1215:B2 7.83366e-05
25 *1393:S *1431:A 0
26 *1393:S *319:78 9.15842e-06
27 *1393:S *335:85 5.88702e-05
28 *1395:S *1395:A0 9.90367e-05
29 *1395:S *1396:A 0.000232399
30 *1395:S *1397:A1 0.000206811
31 *1395:S *1644:A 0.000904281
32 *1397:S *1397:A1 5.65955e-05
33 *1397:S *1644:A 9.83442e-05
34 *288:36 *1162:A 0.000258759
35 *288:36 *1306:A 5.25774e-05
36 *288:36 *1397:A0 0.00012401
37 *288:36 *1462:CLK 3.47797e-05
38 *288:36 *1478:CLK 5.49643e-05
39 *288:36 *331:48 5.26437e-05
40 *288:36 *499:8 0
41 *288:36 *516:6 3.39935e-05
42 *288:36 *516:29 0
43 *288:38 *1644:A 5.33005e-05
44 *288:68 *1152:B 0.000268119
45 *288:68 *1478:CLK 4.25619e-05
46 *288:68 *329:41 6.9253e-05
47 *288:68 *438:10 0.00017309
48 *288:68 *438:23 0.000162832
49 *288:68 *444:46 0.000170385
50 *288:68 *499:8 0
51 *288:68 *512:23 0.000755199
52 *288:68 *512:44 0.000220399
53 *288:68 *512:48 6.27899e-05
54 *288:68 *512:59 0.000206371
55 *288:76 *1386:A 0
56 *288:76 *1390:A 0
57 *288:76 *362:10 6.65302e-05
58 *288:76 *444:31 1.33343e-05
59 *288:76 *444:46 0.00010096
60 *288:100 *1252:A1 5.7616e-05
61 *288:100 *1385:A1 2.95726e-05
62 *288:100 *1456:CLK 0.000146646
63 *288:100 *1506:CLK 0.000238299
64 *288:100 *1580:A 0.00016345
65 *288:100 *333:91 0.000138834
66 *288:100 *333:98 0.000193524
67 *288:100 *363:14 3.75868e-05
68 *288:100 *422:66 7.71145e-05
69 *288:111 *1387:A1 2.83425e-05
70 *288:111 *363:14 1.98839e-05
71 used[1] *1395:S 0.000185971
72 *1162:B *288:68 0.000242763
73 *1164:A *288:8 2.89114e-05
74 *1164:A *288:68 0
75 *1170:B *288:36 6.8377e-06
76 *1215:A2 *1393:S 9.7455e-05
77 *1221:B2 *1393:S 0
78 *1222:A1 *1393:S 9.15842e-06
79 *1240:A1 *288:100 0.000147784
80 *1249:A1 *288:68 9.7659e-05
81 *1249:A1 *288:76 5.62995e-05
82 *1321:A *288:36 0.000138691
83 *1462:RESET_B *288:36 1.12381e-05
84 *1476:RESET_B *288:36 9.22103e-06
85 *1478:RESET_B *288:36 5.59013e-05
86 *1481:D *288:100 9.98664e-05
87 *1504:D *1383:S 4.09998e-05
88 *1506:D *288:100 9.59189e-06
89 *1511:D *288:36 0.000111811
90 *37:6 *288:36 9.52501e-05
91 *142:132 *288:100 0
92 *152:72 *288:68 6.02223e-05
93 *158:12 *288:68 0.000601406
94 *158:102 *288:100 5.86894e-05
95 *167:10 *288:68 0
96 *167:38 *288:100 6.05161e-06
97 *167:84 *1383:S 0
98 *168:16 *288:68 0.000101619
99 *175:74 *1393:S 0.000645982
100 *203:12 *1391:S 0
101 *242:12 *1391:S 0.000143272
102 *242:12 *288:68 0.000121193
103 *242:12 *288:76 0.000151628
104 *244:8 *288:36 0.000441695
105 *244:21 *288:36 0
106 *244:112 *288:36 4.5632e-05
107 *245:85 *288:100 3.68566e-05
108 *245:85 *288:111 0.000729678
109 *245:102 *288:111 0.000724688
110 *268:18 *288:68 0.000217455
111 *268:101 *1383:S 0.000245856
112 *268:101 *1393:S 4.19771e-05
*RES
1 *1382:X *288:8 14.3357 
2 *288:8 *288:36 49.8214 
3 *288:36 *288:38 0.535714 
4 *288:38 *1395:S 21.6929 
5 *288:38 *1397:S 10.2464 
6 *288:8 *288:68 41.9643 
7 *288:68 *288:76 12.6786 
8 *288:76 *288:78 4.5 
9 *288:78 *288:100 49.3929 
10 *288:100 *1387:S 10.0321 
11 *288:100 *288:111 19.8214 
12 *288:111 *1393:S 36.3893 
13 *288:111 *1383:S 17.2643 
14 *288:78 *1385:S 9.3 
15 *288:76 *1391:S 21.5143 
16 *288:68 *1389:S 9.3 
*END

*D_NET *289 0.000540702
*CONN
*I *1384:A I *D sky130_fd_sc_hd__clkbuf_1
*I *1383:X O *D sky130_fd_sc_hd__mux2_1
*CAP
1 *1384:A 0.000198462
2 *1383:X 0.000198462
3 *1384:A *1260:B2 0
4 *1384:A *319:78 3.63281e-05
5 *1384:A *438:96 5.65955e-05
6 *1348:A *1384:A 5.08533e-05
*RES
1 *1383:X *1384:A 30.85 
*END

*D_NET *290 0.000569444
*CONN
*I *1386:A I *D sky130_fd_sc_hd__clkbuf_1
*I *1385:X O *D sky130_fd_sc_hd__mux2_1
*CAP
1 *1386:A 0.000284722
2 *1385:X 0.000284722
3 *1505:D *1386:A 0
4 *288:76 *1386:A 0
*RES
1 *1385:X *1386:A 32.9929 
*END

*D_NET *291 0.000152476
*CONN
*I *1388:A I *D sky130_fd_sc_hd__clkbuf_1
*I *1387:X O *D sky130_fd_sc_hd__mux2_1
*CAP
1 *1388:A 7.62382e-05
2 *1387:X 7.62382e-05
*RES
1 *1387:X *1388:A 19.8679 
*END

*D_NET *292 0.000144023
*CONN
*I *1390:A I *D sky130_fd_sc_hd__clkbuf_1
*I *1389:X O *D sky130_fd_sc_hd__mux2_1
*CAP
1 *1390:A 6.06406e-05
2 *1389:X 6.06406e-05
3 *1249:A1 *1390:A 2.27416e-05
4 *288:76 *1390:A 0
*RES
1 *1389:X *1390:A 19.8679 
*END

*D_NET *293 0.000185515
*CONN
*I *1392:A I *D sky130_fd_sc_hd__clkbuf_1
*I *1391:X O *D sky130_fd_sc_hd__mux2_1
*CAP
1 *1392:A 6.44598e-05
2 *1391:X 6.44598e-05
3 *1392:A *455:25 5.65955e-05
*RES
1 *1391:X *1392:A 19.8679 
*END

*D_NET *294 0.00184581
*CONN
*I *1394:A I *D sky130_fd_sc_hd__clkbuf_1
*I *1393:X O *D sky130_fd_sc_hd__mux2_1
*CAP
1 *1394:A 0.00043962
2 *1393:X 0.00043962
3 *1394:A *1544:A 9.83442e-05
4 *1394:A *1572:A 0.000196269
5 *1394:A *319:78 7.45011e-05
6 *1394:A *335:12 3.48235e-05
7 *1394:A *335:85 3.67452e-05
8 *1509:D *1394:A 0.00012401
9 *172:53 *1394:A 9.80173e-05
10 *227:8 *1394:A 0.000303856
*RES
1 *1393:X *1394:A 38.3857 
*END

*D_NET *295 0.000471811
*CONN
*I *1396:A I *D sky130_fd_sc_hd__clkbuf_1
*I *1395:X O *D sky130_fd_sc_hd__mux2_1
*CAP
1 *1396:A 0.000119706
2 *1395:X 0.000119706
3 *1395:S *1396:A 0.000232399
*RES
1 *1395:X *1396:A 21.5107 
*END

*D_NET *296 0.000869403
*CONN
*I *1398:A I *D sky130_fd_sc_hd__clkbuf_1
*I *1397:X O *D sky130_fd_sc_hd__mux2_1
*CAP
1 *1398:A 0.000379664
2 *1397:X 0.000379664
3 *1398:A *1644:A 0.000110076
4 *1462:D *1398:A 0
*RES
1 *1397:X *1398:A 32.9571 
*END

*D_NET *297 0.00333767
*CONN
*I *1418:C I *D sky130_fd_sc_hd__and3b_1
*I *1436:B I *D sky130_fd_sc_hd__and3b_1
*I *1400:B I *D sky130_fd_sc_hd__and2_1
*I *1399:X O *D sky130_fd_sc_hd__and4_1
*CAP
1 *1418:C 0.000231716
2 *1436:B 1.91209e-05
3 *1400:B 2.02412e-05
4 *1399:X 0.000446405
5 *297:25 0.000417712
6 *297:14 0.000633521
7 *1418:C *1326:A 5.41794e-05
8 *1418:C *1401:A 0.000125547
9 *1418:C *1437:A 0.000186669
10 *1418:C *514:115 0.00014652
11 *297:14 *1399:B 4.28167e-05
12 *297:14 *1647:A 7.76348e-05
13 *297:14 *514:59 0.000314352
14 *297:14 *514:70 0.000114045
15 *297:14 *514:83 4.56437e-05
16 *297:25 *1401:A 0.000227532
17 *1399:C *297:14 3.97677e-05
18 *1399:D *297:14 2.26669e-05
19 *1400:A *1400:B 5.52238e-05
20 *1400:A *297:25 1.60597e-05
21 *140:8 *297:14 8.83642e-05
22 *140:21 *297:14 1.19309e-05
23 *258:40 *1418:C 0
*RES
1 *1399:X *297:14 27.9964 
2 *297:14 *1400:B 9.83571 
3 *297:14 *297:25 3.32143 
4 *297:25 *1436:B 9.72857 
5 *297:25 *1418:C 22.7643 
*END

*D_NET *298 0.00166841
*CONN
*I *1401:A I *D sky130_fd_sc_hd__clkbuf_4
*I *1400:X O *D sky130_fd_sc_hd__and2_1
*CAP
1 *1401:A 0.000285252
2 *1400:X 0.000285252
3 *1401:A *1326:A 5.33005e-05
4 *1401:A *1418:B 2.44318e-05
5 *1401:A *1419:A 2.89016e-05
6 *1401:A *1436:A_N 5.33005e-05
7 *1401:A *1437:A 0.000147952
8 *1401:A *299:14 2.19778e-05
9 *1401:A *514:115 6.71755e-05
10 *1401:A *515:102 0.000105555
11 *1400:A *1401:A 9.16074e-05
12 *1418:C *1401:A 0.000125547
13 *258:40 *1401:A 0.000150625
14 *278:8 *1401:A 0
15 *297:25 *1401:A 0.000227532
*RES
1 *1400:X *1401:A 36.5643 
*END

*D_NET *299 0.028409
*CONN
*I *1408:S I *D sky130_fd_sc_hd__mux2_1
*I *1402:S I *D sky130_fd_sc_hd__mux2_1
*I *1412:S I *D sky130_fd_sc_hd__mux2_1
*I *1416:S I *D sky130_fd_sc_hd__mux2_1
*I *1414:S I *D sky130_fd_sc_hd__mux2_1
*I *1406:S I *D sky130_fd_sc_hd__mux2_1
*I *1404:S I *D sky130_fd_sc_hd__mux2_1
*I *1410:S I *D sky130_fd_sc_hd__mux2_1
*I *1401:X O *D sky130_fd_sc_hd__clkbuf_4
*CAP
1 *1408:S 0
2 *1402:S 0.000228299
3 *1412:S 4.29027e-05
4 *1416:S 0.000466756
5 *1414:S 0
6 *1406:S 2.37855e-05
7 *1404:S 0.000190575
8 *1410:S 0.000139327
9 *1401:X 0.000895645
10 *299:135 0.00118472
11 *299:109 0.00185816
12 *299:97 0.00206768
13 *299:80 0.0016391
14 *299:46 0.00146777
15 *299:22 0.00298892
16 *299:14 0.00187347
17 *1402:S *401:36 1.00332e-05
18 *1402:S *401:44 0.00013564
19 *1404:S *1226:A 2.84494e-05
20 *1404:S *1253:A 0
21 *1404:S *1410:A1 0
22 *1404:S *1598:A 6.05445e-05
23 *1404:S *334:21 0.000217163
24 *1404:S *334:86 0.000164554
25 *1404:S *422:14 2.8266e-06
26 *1410:S *1410:A0 0.00010096
27 *1410:S *1598:A 9.90367e-05
28 *1412:S *466:43 0.000185124
29 *1416:S *1414:A0 0.000136676
30 *1416:S *1416:A0 7.11463e-05
31 *1416:S *413:12 0
32 *1416:S *477:66 2.36643e-05
33 *1416:S *477:83 3.18747e-05
34 *299:14 *1426:A1 0.000113188
35 *299:22 *1387:A0 8.82209e-05
36 *299:22 *1467:CLK 2.30116e-06
37 *299:22 *1490:CLK 0.000156594
38 *299:22 *1523:CLK 0.000172465
39 *299:22 *309:23 0
40 *299:22 *335:40 0.000103263
41 *299:22 *336:12 3.84385e-05
42 *299:22 *340:14 7.83659e-05
43 *299:22 *438:75 0
44 *299:22 *444:81 0.000150618
45 *299:22 *444:83 1.02504e-05
46 *299:46 *1428:A0 9.60939e-05
47 *299:46 *1428:S 0.000137402
48 *299:46 *1429:A 0.000110154
49 *299:46 *1467:CLK 1.90936e-05
50 *299:46 *1521:CLK 5.52238e-05
51 *299:46 *1598:A 5.33005e-05
52 *299:46 *378:14 0.000184669
53 *299:46 *455:74 0.000137983
54 *299:80 *1407:A 9.99853e-05
55 *299:80 *1425:A 0.000277232
56 *299:80 *1467:CLK 9.6475e-06
57 *299:80 *309:37 0.000884776
58 *299:80 *336:55 5.25862e-06
59 *299:97 *309:37 0.000715996
60 *299:97 *319:78 5.82232e-05
61 *299:109 *1430:A0 7.4826e-05
62 *299:109 *1480:CLK 0.000143804
63 *299:109 *1485:CLK 0.000171451
64 *299:109 *1570:A 0
65 *299:109 *332:86 0.000190162
66 *299:109 *466:35 0
67 *299:135 *1579:A 0.000185118
68 *299:135 *332:86 0.000152374
69 *299:135 *477:83 2.32641e-05
70 *1198:A1 *299:135 0.000167076
71 *1209:A2 *299:135 2.79421e-05
72 *1218:A2 *1412:S 7.57394e-05
73 *1218:A2 *299:109 6.58099e-05
74 *1236:A2 *299:14 0.000134461
75 *1236:A2 *299:22 0
76 *1240:A1 *299:22 0
77 *1240:A1 *299:80 0
78 *1241:A *299:46 5.33005e-05
79 *1245:A2 *299:80 0
80 *1247:B1 *299:80 7.25235e-05
81 *1247:B1 *299:97 2.27416e-05
82 *1257:B2 *299:22 0
83 *1257:B2 *299:46 4.38243e-05
84 *1258:S *299:109 0
85 *1266:B1 *299:109 6.09476e-05
86 *1291:A *299:109 2.03615e-05
87 *1401:A *299:14 2.19778e-05
88 *1463:D *299:135 2.85234e-05
89 *1521:D *299:46 1.13746e-05
90 *1522:D *299:80 0.000107337
91 *1537:A *299:22 0
92 *160:70 *299:14 6.22408e-05
93 *160:113 *299:135 0.000222085
94 *160:150 *299:109 0.00146186
95 *160:177 *299:80 0.000759157
96 *160:177 *299:97 0.000245383
97 *163:70 *299:22 2.05413e-05
98 *163:70 *299:46 5.03772e-05
99 *163:86 *299:22 4.94362e-05
100 *165:139 *299:135 5.71124e-05
101 *166:10 *299:14 7.79781e-06
102 *166:120 *299:109 0.000101145
103 *176:24 *299:14 3.07302e-05
104 *219:12 *299:22 0.00112759
105 *254:82 *299:46 8.38138e-05
106 *254:109 *1402:S 0.00012503
107 *254:109 *299:97 0.00032445
108 *254:129 *1416:S 0.000561107
109 *254:129 *299:135 0
110 *258:40 *299:14 0
111 *258:56 *299:22 1.91418e-05
112 *258:110 *299:109 1.70307e-05
113 *278:8 *299:14 6.0038e-05
114 *278:53 *299:14 0.000923713
115 *278:61 *299:14 0.000150718
*RES
1 *1401:X *299:14 38.4786 
2 *299:14 *299:22 30.1786 
3 *299:22 *299:46 33.3929 
4 *299:46 *1410:S 12.3 
5 *299:46 *1404:S 23.2821 
6 *299:22 *299:80 20.5826 
7 *299:80 *1406:S 9.72857 
8 *299:80 *299:97 11.3945 
9 *299:97 *299:109 31.0261 
10 *299:109 *299:135 28.4375 
11 *299:135 *1414:S 9.3 
12 *299:135 *1416:S 29.3536 
13 *299:109 *1412:S 15.5679 
14 *299:97 *1402:S 19.412 
15 *299:14 *1408:S 9.3 
*END

*D_NET *300 0.00028917
*CONN
*I *1403:A I *D sky130_fd_sc_hd__clkbuf_1
*I *1402:X O *D sky130_fd_sc_hd__mux2_1
*CAP
1 *1403:A 8.00297e-05
2 *1402:X 8.00297e-05
3 *1403:A *377:10 0
4 *1263:A2 *1403:A 6.48863e-05
5 *1266:B2 *1403:A 6.42242e-05
*RES
1 *1402:X *1403:A 29.85 
*END

*D_NET *301 0.000944917
*CONN
*I *1405:A I *D sky130_fd_sc_hd__clkbuf_1
*I *1404:X O *D sky130_fd_sc_hd__mux2_1
*CAP
1 *1405:A 0.000443018
2 *1404:X 0.000443018
3 *1405:A *370:10 1.72894e-05
4 *1284:A *1405:A 0
5 *1513:D *1405:A 4.15914e-05
*RES
1 *1404:X *1405:A 33.475 
*END

*D_NET *302 0.0013685
*CONN
*I *1407:A I *D sky130_fd_sc_hd__clkbuf_1
*I *1406:X O *D sky130_fd_sc_hd__mux2_1
*CAP
1 *1407:A 0.000408605
2 *1406:X 0.000408605
3 *1407:A *1406:A0 8.88163e-05
4 *1407:A *1424:A0 0
5 *1407:A *336:55 0
6 *1407:A *336:70 0.000121842
7 *1407:A *336:87 0.000185694
8 *175:78 *1407:A 5.49489e-05
9 *299:80 *1407:A 9.99853e-05
*RES
1 *1406:X *1407:A 35.5821 
*END

*D_NET *303 0.00100271
*CONN
*I *1409:A I *D sky130_fd_sc_hd__clkbuf_1
*I *1408:X O *D sky130_fd_sc_hd__mux2_1
*CAP
1 *1409:A 0.00039416
2 *1408:X 0.00039416
3 *1409:A *372:12 0
4 *1336:A *1409:A 0.000159855
5 *1483:D *1409:A 5.45307e-05
*RES
1 *1408:X *1409:A 34.4571 
*END

*D_NET *304 0.000150556
*CONN
*I *1411:A I *D sky130_fd_sc_hd__clkbuf_1
*I *1410:X O *D sky130_fd_sc_hd__mux2_1
*CAP
1 *1411:A 7.52778e-05
2 *1410:X 7.52778e-05
*RES
1 *1410:X *1411:A 19.8679 
*END

*D_NET *305 0.00153133
*CONN
*I *1413:A I *D sky130_fd_sc_hd__clkbuf_1
*I *1412:X O *D sky130_fd_sc_hd__mux2_1
*CAP
1 *1413:A 0.000411093
2 *1412:X 0.000411093
3 *1413:A *1270:A2 0.000142157
4 *1413:A *1412:A0 7.83659e-05
5 *1413:A *1412:A1 5.30637e-06
6 *1413:A *466:35 0.000332688
7 *1218:A2 *1413:A 0
8 *1517:D *1413:A 0.000150625
*RES
1 *1412:X *1413:A 35.5107 
*END

*D_NET *306 0.00108399
*CONN
*I *1415:A I *D sky130_fd_sc_hd__clkbuf_1
*I *1414:X O *D sky130_fd_sc_hd__mux2_1
*CAP
1 *1415:A 0.000282732
2 *1414:X 0.000282732
3 *1415:A *1208:A 4.48542e-05
4 *1415:A *1270:A1 0
5 *1415:A *1270:A2 4.27842e-06
6 *1415:A *1414:A0 3.11088e-05
7 *1415:A *1609:A 0.000104967
8 *1415:A *413:12 0.000290756
9 *1415:A *431:18 4.25594e-05
*RES
1 *1414:X *1415:A 33.7429 
*END

*D_NET *307 0.000428311
*CONN
*I *1417:A I *D sky130_fd_sc_hd__clkbuf_1
*I *1416:X O *D sky130_fd_sc_hd__mux2_1
*CAP
1 *1417:A 0.000144314
2 *1416:X 0.000144314
3 *1417:A *1519:CLK 0.000127246
4 *1212:B2 *1417:A 0
5 *1519:D *1417:A 1.24368e-05
*RES
1 *1416:X *1417:A 30.4929 
*END

*D_NET *308 0.00074824
*CONN
*I *1419:A I *D sky130_fd_sc_hd__clkbuf_4
*I *1418:X O *D sky130_fd_sc_hd__and3b_1
*CAP
1 *1419:A 0.000175785
2 *1418:X 0.000175785
3 *1419:A *1326:B 7.50601e-05
4 *1419:A *1444:S 0
5 *1401:A *1419:A 2.89016e-05
6 *258:40 *1419:A 0.000292708
*RES
1 *1418:X *1419:A 31.9036 
*END

*D_NET *309 0.0229914
*CONN
*I *1424:S I *D sky130_fd_sc_hd__mux2_1
*I *1422:S I *D sky130_fd_sc_hd__mux2_1
*I *1428:S I *D sky130_fd_sc_hd__mux2_1
*I *1430:S I *D sky130_fd_sc_hd__mux2_1
*I *1432:S I *D sky130_fd_sc_hd__mux2_1
*I *1434:S I *D sky130_fd_sc_hd__mux2_1
*I *1420:S I *D sky130_fd_sc_hd__mux2_1
*I *1426:S I *D sky130_fd_sc_hd__mux2_1
*I *1419:X O *D sky130_fd_sc_hd__clkbuf_4
*CAP
1 *1424:S 0.000224104
2 *1422:S 3.61857e-05
3 *1428:S 0.000234712
4 *1430:S 0
5 *1432:S 1.15298e-05
6 *1434:S 0.000587776
7 *1420:S 1.55111e-05
8 *1426:S 0
9 *1419:X 0.000490621
10 *309:95 0.000883583
11 *309:89 0.00095826
12 *309:56 0.000935339
13 *309:54 0.00122516
14 *309:37 0.00181244
15 *309:23 0.0022604
16 *309:10 0.00172175
17 *1422:S *1422:A1 5.7661e-06
18 *1424:S *1638:A 7.15704e-05
19 *1428:S *378:14 3.25078e-05
20 *1428:S *422:50 0
21 *1428:S *455:74 5.33005e-05
22 *1432:S *1432:A0 5.50052e-05
23 *1432:S *477:83 1.62025e-05
24 *1432:S *477:100 7.25873e-06
25 *1434:S *384:10 0
26 *1434:S *477:83 2.48421e-05
27 *309:10 *1444:A0 7.74135e-05
28 *309:10 *1444:A1 0
29 *309:10 *1444:S 0
30 *309:10 *1535:CLK 3.18676e-05
31 *309:10 *444:83 0
32 *309:23 *1242:A1 0.000213182
33 *309:23 *1242:B2 2.2274e-05
34 *309:23 *1523:CLK 0
35 *309:23 *1577:A 6.09572e-05
36 *309:23 *335:40 0
37 *309:37 *401:54 1.85762e-05
38 *309:54 *1290:A1 0.000144132
39 *309:54 *1300:A0 0.000149904
40 *309:54 *401:44 1.21258e-05
41 *309:95 *1422:A1 5.38444e-06
42 *309:95 *1423:A 0.000109335
43 *309:95 *422:92 2.79421e-05
44 *309:95 *422:105 0.000472686
45 *1202:A2 *1434:S 0
46 *1203:B2 *1434:S 0.000321745
47 *1211:C1 *309:56 5.92441e-05
48 *1220:B1 *309:54 0.000404324
49 *1220:B1 *309:56 1.02504e-05
50 *1236:A2 *309:10 0.000127446
51 *1236:A2 *309:23 2.31791e-05
52 *1239:B2 *309:23 0.000127446
53 *1240:A1 *309:23 3.8361e-06
54 *1240:A1 *309:89 0
55 *1245:B1 *309:37 7.61932e-05
56 *1245:B1 *309:54 7.77652e-05
57 *1254:A1 *1428:S 3.17148e-05
58 *1254:A1 *309:95 5.33005e-05
59 *1257:B2 *1428:S 0
60 *1261:B1 *309:54 4.26646e-05
61 *1266:B2 *309:54 5.78861e-05
62 *1372:A *309:10 3.9733e-05
63 *1454:D *309:54 0.000334797
64 *1467:D *309:95 0.000100625
65 *1467:RESET_B *309:89 0
66 *1523:D *309:23 0.000123428
67 *1526:D *309:56 0
68 *1527:D *1434:S 0
69 *160:45 *309:10 0
70 *160:150 *309:54 0
71 *160:177 *309:37 0.000149294
72 *160:177 *309:95 0.000152435
73 *165:90 *309:54 0.000900319
74 *165:171 *1422:S 0
75 *166:120 *309:54 0.000473937
76 *172:24 *309:10 2.73164e-05
77 *172:66 *309:54 7.79781e-06
78 *172:66 *309:56 0.000146002
79 *245:85 *309:23 4.79773e-05
80 *254:82 *1428:S 0.000159989
81 *254:109 *309:37 0.00169758
82 *258:40 *309:10 0.000866095
83 *258:40 *309:23 0.00017309
84 *278:61 *309:23 0.00126723
85 *278:61 *309:89 0.000158956
86 *299:22 *309:23 0
87 *299:46 *1428:S 0.000137402
88 *299:80 *309:37 0.000884776
89 *299:97 *309:37 0.000715996
*RES
1 *1419:X *309:10 25.6929 
2 *309:10 *1426:S 13.8 
3 *309:10 *309:23 26.3482 
4 *309:23 *309:37 17.1923 
5 *309:37 *1420:S 9.72857 
6 *309:37 *309:54 31.0357 
7 *309:54 *309:56 7.10714 
8 *309:56 *1434:S 24.175 
9 *309:56 *1432:S 14.3357 
10 *309:54 *1430:S 13.8 
11 *309:23 *309:89 7.02679 
12 *309:89 *309:95 12.8929 
13 *309:95 *1428:S 23.675 
14 *309:95 *1422:S 10.0321 
15 *309:89 *1424:S 13.1214 
*END

*D_NET *310 0.000685124
*CONN
*I *1421:A I *D sky130_fd_sc_hd__clkbuf_1
*I *1420:X O *D sky130_fd_sc_hd__mux2_1
*CAP
1 *1421:A 0.00025164
2 *1420:X 0.00025164
3 *1421:A *1420:A0 0
4 *1421:A *377:10 0
5 *1245:B1 *1421:A 3.18676e-05
6 *1265:B1 *1421:A 8.50795e-06
7 *1520:D *1421:A 7.83366e-05
8 *175:74 *1421:A 6.31316e-05
*RES
1 *1420:X *1421:A 32.5107 
*END

*D_NET *311 0.000266543
*CONN
*I *1423:A I *D sky130_fd_sc_hd__clkbuf_1
*I *1422:X O *D sky130_fd_sc_hd__mux2_1
*CAP
1 *1423:A 7.8604e-05
2 *1422:X 7.8604e-05
3 *1467:D *1423:A 0
4 *309:95 *1423:A 0.000109335
*RES
1 *1422:X *1423:A 20.2786 
*END

*D_NET *312 0.00100886
*CONN
*I *1425:A I *D sky130_fd_sc_hd__clkbuf_1
*I *1424:X O *D sky130_fd_sc_hd__mux2_1
*CAP
1 *1425:A 0.000201081
2 *1424:X 0.000201081
3 *1425:A *1596:A 0.000228791
4 *1247:B1 *1425:A 6.35542e-05
5 *1247:C1 *1425:A 3.7117e-05
6 *1522:D *1425:A 0
7 *299:80 *1425:A 0.000277232
*RES
1 *1424:X *1425:A 33.1893 
*END

*D_NET *313 0.00117462
*CONN
*I *1427:A I *D sky130_fd_sc_hd__clkbuf_1
*I *1426:X O *D sky130_fd_sc_hd__mux2_1
*CAP
1 *1427:A 0.000209895
2 *1426:X 0.000209895
3 *1427:A *335:27 5.33334e-05
4 *166:10 *1427:A 0.000511908
5 *278:61 *1427:A 0.000189584
*RES
1 *1426:X *1427:A 35.0464 
*END

*D_NET *314 0.000258375
*CONN
*I *1429:A I *D sky130_fd_sc_hd__clkbuf_1
*I *1428:X O *D sky130_fd_sc_hd__mux2_1
*CAP
1 *1429:A 7.41105e-05
2 *1428:X 7.41105e-05
3 *299:46 *1429:A 0.000110154
*RES
1 *1428:X *1429:A 20.2786 
*END

*D_NET *315 0.000783111
*CONN
*I *1431:A I *D sky130_fd_sc_hd__clkbuf_1
*I *1430:X O *D sky130_fd_sc_hd__mux2_1
*CAP
1 *1431:A 0.000232607
2 *1430:X 0.000232607
3 *1431:A *1219:A1 0
4 *1393:S *1431:A 0
5 *1525:D *1431:A 8.91726e-05
6 *165:82 *1431:A 5.71472e-05
7 *165:90 *1431:A 0.000171577
8 *175:74 *1431:A 0
*RES
1 *1430:X *1431:A 32.5107 
*END

*D_NET *316 0.00017272
*CONN
*I *1433:A I *D sky130_fd_sc_hd__clkbuf_1
*I *1432:X O *D sky130_fd_sc_hd__mux2_1
*CAP
1 *1433:A 4.92887e-05
2 *1432:X 4.92887e-05
3 *1433:A *477:100 7.41422e-05
*RES
1 *1432:X *1433:A 19.8679 
*END

*D_NET *317 0.000615799
*CONN
*I *1435:A I *D sky130_fd_sc_hd__clkbuf_1
*I *1434:X O *D sky130_fd_sc_hd__mux2_1
*CAP
1 *1435:A 0.000150685
2 *1434:X 0.000150685
3 *1435:A *488:32 5.52302e-05
4 *1203:B1 *1435:A 0.000210994
5 *1527:D *1435:A 4.82048e-05
*RES
1 *1434:X *1435:A 22.4571 
*END

*D_NET *318 0.00172463
*CONN
*I *1437:A I *D sky130_fd_sc_hd__clkbuf_4
*I *1436:X O *D sky130_fd_sc_hd__and3b_1
*CAP
1 *1437:A 0.000460491
2 *1436:X 0.000460491
3 *1437:A *1326:A 4.27935e-05
4 *1437:A *515:102 9.03632e-05
5 *1380:A *1437:A 0
6 *1401:A *1437:A 0.000147952
7 *1418:C *1437:A 0.000186669
8 *163:191 *1437:A 0.000335874
9 *278:8 *1437:A 0
10 *278:53 *1437:A 0
*RES
1 *1436:X *1437:A 38.9571 
*END

*D_NET *319 0.0205719
*CONN
*I *1438:S I *D sky130_fd_sc_hd__mux2_1
*I *1442:S I *D sky130_fd_sc_hd__mux2_1
*I *1440:S I *D sky130_fd_sc_hd__mux2_1
*I *1446:S I *D sky130_fd_sc_hd__mux2_1
*I *1448:S I *D sky130_fd_sc_hd__mux2_1
*I *1450:S I *D sky130_fd_sc_hd__mux2_1
*I *1452:S I *D sky130_fd_sc_hd__mux2_1
*I *1444:S I *D sky130_fd_sc_hd__mux2_1
*I *1437:X O *D sky130_fd_sc_hd__clkbuf_4
*CAP
1 *1438:S 7.13791e-05
2 *1442:S 0
3 *1440:S 0
4 *1446:S 0.000582153
5 *1448:S 0.000107951
6 *1450:S 0
7 *1452:S 0
8 *1444:S 0.000864885
9 *1437:X 0
10 *319:106 0.000744468
11 *319:104 0.00148813
12 *319:84 0.0014849
13 *319:78 0.00172672
14 *319:47 0.00185373
15 *319:38 0.000378034
16 *319:27 0.000712803
17 *319:4 0.00130642
18 *1438:S *1575:A 0.00035577
19 *1444:S *1444:A1 5.54817e-06
20 *1444:S *429:25 0
21 *1444:S *435:52 0.000119709
22 *1446:S *1228:B2 7.89362e-05
23 *1446:S *1441:A 0.000111824
24 *1446:S *334:104 0.000611965
25 *1446:S *357:12 5.50052e-05
26 *1446:S *425:55 0.00015244
27 *1446:S *437:122 4.04224e-05
28 *1448:S *1448:A1 8.97505e-05
29 *319:27 *1379:A0 9.77423e-05
30 *319:27 *1379:A1 8.76126e-05
31 *319:27 *1452:A0 7.57394e-05
32 *319:27 *328:36 0.000148903
33 *319:27 *392:8 0.000182598
34 *319:38 *1452:A0 4.73286e-05
35 *319:38 *332:10 9.67101e-05
36 *319:38 *332:29 0.000214084
37 *319:38 *392:8 0.000269795
38 *319:38 *488:108 5.88102e-05
39 *319:47 *332:29 5.35475e-05
40 *319:47 *332:42 0.00018187
41 *319:78 *1264:B2 6.73707e-06
42 *319:78 *1383:A1 6.16579e-05
43 *319:78 *1406:A0 5.93671e-05
44 *319:78 *1406:A1 0.000242432
45 *319:78 *1572:A 0
46 *319:78 *1608:A 0
47 *319:78 *1638:A 0.000614142
48 *319:78 *332:42 0.000197701
49 *319:78 *332:74 0.000160263
50 *319:78 *335:85 0
51 *319:78 *336:55 0
52 *319:78 *339:14 9.6365e-05
53 *319:84 *1264:B2 0.000115688
54 *319:84 *1575:A 5.99191e-05
55 *319:84 *1638:A 1.21837e-05
56 *319:104 *1442:A0 5.23822e-05
57 *319:104 *1442:A1 5.47247e-05
58 *319:104 *1498:CLK 9.77409e-05
59 *319:104 *336:97 1.83053e-05
60 *319:104 *336:99 0.000193189
61 *1245:A2 *319:78 0
62 *1351:S *319:78 6.81083e-05
63 *1373:S *1446:S 0.000459299
64 *1373:S *319:106 5.49995e-05
65 *1376:A *1448:S 1.24368e-05
66 *1384:A *319:78 3.63281e-05
67 *1393:S *319:78 9.15842e-06
68 *1394:A *319:78 7.45011e-05
69 *1419:A *1444:S 0
70 *1488:D *319:78 0
71 *1496:D *1438:S 0.000399238
72 *1496:D *319:84 7.89362e-05
73 *1496:D *319:104 5.50052e-05
74 *1502:D *319:38 0.00011969
75 *1509:D *319:78 6.42145e-05
76 *1528:D *319:104 4.8892e-05
77 *176:77 *319:78 0
78 *258:40 *1444:S 0
79 *268:86 *319:38 0.000533931
80 *268:86 *319:47 0.000227991
81 *268:86 *319:78 0.00051672
82 *268:101 *319:78 0.000975453
83 *278:20 *1444:S 0.000118604
84 *278:20 *319:27 0.000159684
85 *299:97 *319:78 5.82232e-05
86 *309:10 *1444:S 0
*RES
1 *1437:X *319:4 9.3 
2 *319:4 *1444:S 30.3 
3 *319:4 *319:27 17.3571 
4 *319:27 *1452:S 9.3 
5 *319:27 *319:38 14.1964 
6 *319:38 *1450:S 13.8 
7 *319:38 *319:47 3.16071 
8 *319:47 *1448:S 15.9964 
9 *319:47 *319:78 48.7411 
10 *319:78 *319:84 7.02679 
11 *319:84 *319:104 19.5 
12 *319:104 *319:106 3 
13 *319:106 *1446:S 32.7464 
14 *319:106 *1440:S 9.3 
15 *319:104 *1442:S 9.3 
16 *319:84 *1438:S 13.1214 
*END

*D_NET *320 0.0010683
*CONN
*I *1439:A I *D sky130_fd_sc_hd__clkbuf_1
*I *1438:X O *D sky130_fd_sc_hd__mux2_1
*CAP
1 *1439:A 0.00030015
2 *1438:X 0.00030015
3 *1439:A *1438:A1 0
4 *1439:A *1638:A 7.41421e-05
5 *1365:S *1439:A 0.000228758
6 *1496:D *1439:A 0.000143633
7 *176:87 *1439:A 2.14658e-05
*RES
1 *1438:X *1439:A 33.4929 
*END

*D_NET *321 0.000246306
*CONN
*I *1441:A I *D sky130_fd_sc_hd__clkbuf_1
*I *1440:X O *D sky130_fd_sc_hd__mux2_1
*CAP
1 *1441:A 6.7241e-05
2 *1440:X 6.7241e-05
3 *1446:S *1441:A 0.000111824
*RES
1 *1440:X *1441:A 20.2786 
*END

*D_NET *322 0.000657421
*CONN
*I *1443:A I *D sky130_fd_sc_hd__clkbuf_1
*I *1442:X O *D sky130_fd_sc_hd__mux2_1
*CAP
1 *1443:A 0.000267826
2 *1442:X 0.000267826
3 *1443:A *1255:B2 5.52302e-05
4 *1443:A *1442:A0 0
5 *1530:D *1443:A 6.65398e-05
*RES
1 *1442:X *1443:A 32.8679 
*END

*D_NET *323 0.000580537
*CONN
*I *1445:A I *D sky130_fd_sc_hd__clkbuf_1
*I *1444:X O *D sky130_fd_sc_hd__mux2_1
*CAP
1 *1445:A 0.000246099
2 *1444:X 0.000246099
3 *1445:A *1444:A1 0
4 *1445:A *1531:CLK 0
5 *1531:D *1445:A 8.83386e-05
*RES
1 *1444:X *1445:A 31.975 
*END

*D_NET *324 0.000342771
*CONN
*I *1447:A I *D sky130_fd_sc_hd__clkbuf_1
*I *1446:X O *D sky130_fd_sc_hd__mux2_1
*CAP
1 *1447:A 0.000171385
2 *1446:X 0.000171385
*RES
1 *1446:X *1447:A 21.5107 
*END

*D_NET *325 0.000189064
*CONN
*I *1449:A I *D sky130_fd_sc_hd__clkbuf_1
*I *1448:X O *D sky130_fd_sc_hd__mux2_1
*CAP
1 *1449:A 9.45318e-05
2 *1448:X 9.45318e-05
*RES
1 *1448:X *1449:A 20.2786 
*END

*D_NET *326 0.00100105
*CONN
*I *1451:A I *D sky130_fd_sc_hd__clkbuf_1
*I *1450:X O *D sky130_fd_sc_hd__mux2_1
*CAP
1 *1451:A 0.000183634
2 *1450:X 0.000183634
3 *1451:A *1210:B2 9.58181e-05
4 *1211:C1 *1451:A 5.49544e-05
5 *165:63 *1451:A 0.000291468
6 *166:76 *1451:A 1.8773e-05
7 *175:33 *1451:A 0.000172769
*RES
1 *1450:X *1451:A 33.0464 
*END

*D_NET *327 0.00123218
*CONN
*I *1453:A I *D sky130_fd_sc_hd__clkbuf_1
*I *1452:X O *D sky130_fd_sc_hd__mux2_1
*CAP
1 *1453:A 0.000445267
2 *1452:X 0.000445267
3 *1453:A *1535:CLK 0.00014285
4 *1453:A *392:8 3.08664e-05
5 *1535:D *1453:A 0.000167931
*RES
1 *1452:X *1453:A 27.2607 
*END

*D_NET *328 0.0238546
*CONN
*I *1545:A I *D sky130_fd_sc_hd__clkbuf_16
*I *1539:A I *D sky130_fd_sc_hd__clkbuf_16
*I *1538:A I *D sky130_fd_sc_hd__clkbuf_16
*I *1543:A I *D sky130_fd_sc_hd__clkbuf_16
*I *1542:A I *D sky130_fd_sc_hd__clkbuf_16
*I *1544:A I *D sky130_fd_sc_hd__clkbuf_16
*I *1541:A I *D sky130_fd_sc_hd__clkbuf_16
*I *1540:A I *D sky130_fd_sc_hd__clkbuf_16
*I *1537:X O *D sky130_fd_sc_hd__clkbuf_16
*CAP
1 *1545:A 0.000551285
2 *1539:A 0
3 *1538:A 0.000194179
4 *1543:A 0.000315609
5 *1542:A 0
6 *1544:A 0.000206772
7 *1541:A 3.53739e-05
8 *1540:A 0.000590185
9 *1537:X 8.17724e-05
10 *328:113 0.00189598
11 *328:83 0.00046994
12 *328:79 0.00376831
13 *328:75 0.0024933
14 *328:36 0.00304611
15 *328:20 0.00317464
16 *328:10 0.000658933
17 *1538:A *1153:B 0.00016715
18 *1538:A *511:10 9.54798e-06
19 *1540:A *1194:A1 0
20 *1540:A *1379:A0 0.000163948
21 *1540:A *1379:A1 1.62621e-05
22 *1540:A *1503:CLK 0.000386717
23 *1541:A *1379:A0 5.33005e-05
24 *1543:A *422:50 0.000583818
25 *1543:A *425:55 8.73823e-05
26 *1545:A *1243:A1 0.000260842
27 *1545:A *336:34 0.000348207
28 *1545:A *434:12 0.000350361
29 *328:10 *425:22 5.33433e-05
30 *328:10 *434:12 5.74562e-05
31 *328:20 *335:16 0.000187922
32 *328:20 *335:27 6.63116e-05
33 *328:36 *1270:A1 1.78084e-05
34 *328:36 *1379:A0 3.17148e-05
35 *328:36 *1379:A1 1.59347e-05
36 *328:75 *434:12 4.87471e-05
37 *328:83 *1292:A0 0.000197834
38 *328:83 *422:50 0.00014875
39 *328:83 *425:55 0.000101758
40 *328:113 *499:44 2.07592e-05
41 *328:113 *511:10 0.000128777
42 *1156:B *1538:A 2.49484e-05
43 *1173:B1 *1538:A 0.000165001
44 *1230:B2 *1543:A 0.000173194
45 *1238:C1 *328:10 9.25014e-06
46 *1239:B2 *328:10 9.71197e-05
47 *1243:A2 *1545:A 2.11419e-05
48 *1243:B1 *1545:A 5.52639e-05
49 *1248:A2 *1545:A 0.000351902
50 *1248:B2 *1545:A 0.000121573
51 *1281:A2 *1538:A 0
52 *1281:A2 *328:113 0
53 *1298:S *1543:A 0.00012249
54 *1334:A *1545:A 0.000236333
55 *1380:A *1540:A 2.11543e-05
56 *1394:A *1544:A 9.83442e-05
57 *1482:D *1545:A 0.000348207
58 *1484:D *1543:A 4.78056e-05
59 *1493:D *328:20 5.95099e-05
60 *1503:D *1540:A 3.47737e-05
61 *1537:A *328:79 0
62 *1537:A *328:113 1.74023e-05
63 *142:116 *328:113 0.000129366
64 *142:132 *1543:A 0
65 *142:132 *328:83 0
66 *154:10 *1538:A 0.000175519
67 *165:63 *328:36 6.42122e-06
68 *166:10 *1545:A 1.437e-05
69 *166:10 *328:10 6.42338e-05
70 *166:10 *328:75 4.52365e-05
71 *166:21 *1545:A 3.69697e-05
72 *167:142 *1540:A 9.87983e-06
73 *172:98 *1544:A 0
74 *172:98 *328:20 0
75 *238:10 *1538:A 0
76 *245:20 *1538:A 0
77 *245:33 *328:113 0.000135432
78 *268:86 *328:36 0
79 *268:101 *1544:A 0
80 *268:101 *328:20 0
81 *278:31 *1541:A 9.58181e-05
82 *319:27 *328:36 0.000148903
*RES
1 *1537:X *328:10 16.3893 
2 *328:10 *328:20 16.5982 
3 *328:20 *328:36 20.9687 
4 *328:36 *1540:A 24.8893 
5 *328:36 *1541:A 14.7464 
6 *328:20 *1544:A 17.4518 
7 *328:10 *328:75 1.1875 
8 *328:75 *328:79 6.9162 
9 *328:79 *328:83 7.93679 
10 *328:83 *1542:A 13.8 
11 *328:83 *1543:A 23.3357 
12 *328:79 *328:113 15.3507 
13 *328:113 *1538:A 18.7821 
14 *328:113 *1539:A 13.8 
15 *328:75 *1545:A 31.4518 
*END

*D_NET *329 0.0181735
*CONN
*I *1473:CLK I *D sky130_fd_sc_hd__dfrtp_1
*I *1535:CLK I *D sky130_fd_sc_hd__dfxtp_1
*I *1472:CLK I *D sky130_fd_sc_hd__dfrtp_1
*I *1474:CLK I *D sky130_fd_sc_hd__dfrtp_4
*I *1475:CLK I *D sky130_fd_sc_hd__dfrtp_2
*I *1476:CLK I *D sky130_fd_sc_hd__dfrtp_4
*I *1477:CLK I *D sky130_fd_sc_hd__dfrtp_4
*I *1478:CLK I *D sky130_fd_sc_hd__dfrtp_4
*I *1479:CLK I *D sky130_fd_sc_hd__dfrtp_2
*I *1538:X O *D sky130_fd_sc_hd__clkbuf_16
*CAP
1 *1473:CLK 0.000483181
2 *1535:CLK 0.00111942
3 *1472:CLK 2.83267e-05
4 *1474:CLK 0.000848379
5 *1475:CLK 0
6 *1476:CLK 0.000550216
7 *1477:CLK 0
8 *1478:CLK 0.000656825
9 *1479:CLK 0.000609526
10 *1538:X 0
11 *329:105 0.00173921
12 *329:62 0.0007763
13 *329:41 0.001382
14 *329:24 0.00143378
15 *329:18 0.000599739
16 *329:16 0.00120576
17 *329:14 0.000876908
18 *329:6 0.000902384
19 *1473:CLK *1182:A2 5.10039e-05
20 *1473:CLK *437:42 8.80458e-05
21 *1476:CLK *515:14 0.000228514
22 *1478:CLK *1162:A 5.06983e-05
23 *1478:CLK *516:29 0
24 *1535:CLK *1171:A 4.87953e-05
25 *1535:CLK *330:10 0.000270394
26 *329:14 *437:42 0.000103275
27 *329:14 *510:6 4.0342e-06
28 *329:14 *512:23 6.95205e-05
29 *329:41 *1607:A 0.000303747
30 *329:41 *517:6 0.000144773
31 *329:62 *1381:A 9.90431e-05
32 *329:105 *437:42 0.000176034
33 *329:105 *512:23 6.88974e-05
34 *1161:B *329:41 0.000100831
35 *1161:B *329:62 5.52302e-05
36 *1162:B *329:41 7.02611e-05
37 *1163:B *329:62 8.86413e-05
38 *1164:A *1478:CLK 9.69119e-06
39 *1164:A *329:41 1.46624e-05
40 *1164:A *329:62 0.000140933
41 *1172:A *1535:CLK 5.62479e-05
42 *1179:A1 *1472:CLK 0
43 *1179:A1 *1474:CLK 0
44 *1179:A1 *329:18 0
45 *1179:B1 *329:14 2.6684e-05
46 *1182:A1 *1473:CLK 5.49995e-05
47 *1183:A1 *1473:CLK 0.000166388
48 *1183:A1 *329:105 7.75093e-05
49 *1187:A *1474:CLK 0.000257556
50 *1187:A *329:18 5.83304e-05
51 *1187:B *329:14 0.000268583
52 *1280:B *1535:CLK 0.000144074
53 *1280:C *1535:CLK 0.000485878
54 *1317:A *329:18 0
55 *1381:C_N *1476:CLK 9.58508e-05
56 *1381:C_N *329:62 5.76121e-05
57 *1382:A *329:62 1.02821e-05
58 *1453:A *1535:CLK 0.00014285
59 *1473:D *1473:CLK 9.21611e-05
60 *1473:RESET_B *329:105 3.25078e-05
61 *1475:D *329:18 0.000139523
62 *1476:D *1476:CLK 2.90548e-05
63 *1478:D *1478:CLK 5.52238e-05
64 *1479:RESET_B *329:24 1.19472e-05
65 *152:12 *1535:CLK 9.93135e-05
66 *157:10 *329:18 0
67 *158:45 *329:14 2.03486e-05
68 *158:83 *1535:CLK 9.0145e-05
69 *159:14 *329:18 2.79092e-05
70 *241:10 *1535:CLK 7.49267e-05
71 *288:36 *1478:CLK 5.49643e-05
72 *288:68 *1478:CLK 4.25619e-05
73 *288:68 *329:41 6.9253e-05
74 *309:10 *1535:CLK 3.18676e-05
*RES
1 *1538:X *329:6 13.8 
2 *329:6 *329:14 19.4821 
3 *329:14 *329:16 0.946429 
4 *329:16 *329:18 5.58929 
5 *329:18 *329:24 10.2143 
6 *329:24 *1479:CLK 16.3357 
7 *329:24 *329:41 14.375 
8 *329:41 *1478:CLK 23.0143 
9 *329:41 *329:62 9.96429 
10 *329:62 *1477:CLK 9.3 
11 *329:62 *1476:CLK 19.2821 
12 *329:18 *1475:CLK 13.8 
13 *329:16 *1474:CLK 25.1036 
14 *329:14 *1472:CLK 14.5321 
15 *329:6 *329:105 4.375 
16 *329:105 *1535:CLK 37.3357 
17 *329:105 *1473:CLK 22.7464 
*END

*D_NET *330 0.0141068
*CONN
*I *1457:CLK I *D sky130_fd_sc_hd__dfxtp_1
*I *1515:CLK I *D sky130_fd_sc_hd__dfxtp_1
*I *1499:CLK I *D sky130_fd_sc_hd__dfxtp_1
*I *1534:CLK I *D sky130_fd_sc_hd__dfxtp_1
*I *1531:CLK I *D sky130_fd_sc_hd__dfxtp_1
*I *1507:CLK I *D sky130_fd_sc_hd__dfxtp_1
*I *1491:CLK I *D sky130_fd_sc_hd__dfxtp_1
*I *1539:X O *D sky130_fd_sc_hd__clkbuf_16
*CAP
1 *1457:CLK 0.000222898
2 *1515:CLK 2.22847e-05
3 *1499:CLK 0
4 *1534:CLK 0.00104073
5 *1531:CLK 0.00016438
6 *1507:CLK 3.82418e-05
7 *1491:CLK 0.000830283
8 *1539:X 0.000977455
9 *330:65 0.00119911
10 *330:50 0.000864149
11 *330:38 0.00082524
12 *330:16 0.00189875
13 *330:12 0.0012918
14 *330:10 0.00120035
15 *1457:CLK *444:66 7.2754e-05
16 *1491:CLK *1233:B2 1.92905e-05
17 *1491:CLK *418:18 0
18 *1491:CLK *430:33 0.00012677
19 *1531:CLK *1283:C 0
20 *330:10 *511:10 0.000100635
21 *330:16 *1233:B1 1.40415e-05
22 *330:16 *1233:B2 0.000264223
23 *330:16 *1296:A1 3.9846e-05
24 *330:16 *364:8 5.7511e-06
25 *330:16 *444:46 0.000287004
26 *330:38 *1296:A1 5.52302e-05
27 *330:50 *1283:C 5.80494e-05
28 *1188:B *330:10 4.40806e-05
29 *1200:A_N *330:10 2.95848e-05
30 *1234:A2 *1457:CLK 0.000270552
31 *1234:B1 *330:38 6.4443e-05
32 *1249:A1 *1457:CLK 0.000148165
33 *1281:A1 *330:50 8.37944e-05
34 *1281:A2 *330:10 0
35 *1297:A *1457:CLK 1.46624e-05
36 *1336:A *330:50 0
37 *1372:A *1534:CLK 6.48098e-05
38 *1372:A *330:65 0.000141036
39 *1445:A *1531:CLK 0
40 *1457:D *1457:CLK 5.95099e-05
41 *1515:D *330:50 8.16801e-05
42 *1531:D *1531:CLK 5.14718e-05
43 *1535:CLK *330:10 0.000270394
44 *142:116 *1457:CLK 0.000101985
45 *142:116 *330:10 0.000156923
46 *152:12 *330:10 4.50424e-05
47 *157:75 *330:10 2.26261e-05
48 *157:86 *330:10 1.27349e-05
49 *160:45 *330:50 0.000210288
50 *160:45 *330:65 0.000412762
51 *165:171 *330:50 0
52 *172:24 *1531:CLK 1.02301e-05
53 *176:34 *1534:CLK 0.00010212
54 *245:20 *1457:CLK 0
55 *245:20 *330:10 0
56 *245:20 *330:38 2.14658e-05
57 *245:33 *330:38 6.71755e-05
*RES
1 *1539:X *330:10 29.9071 
2 *330:10 *330:12 4.5 
3 *330:12 *330:16 14.1071 
4 *330:16 *1491:CLK 28.2821 
5 *330:16 *1507:CLK 10.0321 
6 *330:12 *330:38 4.64286 
7 *330:38 *330:50 18.9821 
8 *330:50 *1531:CLK 20.9786 
9 *330:50 *330:65 4.64286 
10 *330:65 *1534:CLK 31.0679 
11 *330:65 *1499:CLK 9.3 
12 *330:38 *1515:CLK 9.72857 
13 *330:10 *1457:CLK 20.4786 
*END

*D_NET *331 0.0153668
*CONN
*I *1503:CLK I *D sky130_fd_sc_hd__dfxtp_1
*I *1487:CLK I *D sky130_fd_sc_hd__dfxtp_1
*I *1519:CLK I *D sky130_fd_sc_hd__dfxtp_1
*I *1486:CLK I *D sky130_fd_sc_hd__dfxtp_1
*I *1470:CLK I *D sky130_fd_sc_hd__dfrtp_1
*I *1460:CLK I *D sky130_fd_sc_hd__dfxtp_1
*I *1471:CLK I *D sky130_fd_sc_hd__dfrtp_1
*I *1510:CLK I *D sky130_fd_sc_hd__dfxtp_1
*I *1461:CLK I *D sky130_fd_sc_hd__dfxtp_1
*I *1511:CLK I *D sky130_fd_sc_hd__dfxtp_1
*I *1462:CLK I *D sky130_fd_sc_hd__dfrtp_1
*I *1494:CLK I *D sky130_fd_sc_hd__dfxtp_1
*I *1495:CLK I *D sky130_fd_sc_hd__dfxtp_1
*I *1540:X O *D sky130_fd_sc_hd__clkbuf_16
*CAP
1 *1503:CLK 0.000242145
2 *1487:CLK 0.00020129
3 *1519:CLK 0.000228988
4 *1486:CLK 2.47994e-05
5 *1470:CLK 0
6 *1460:CLK 0
7 *1471:CLK 8.9042e-05
8 *1510:CLK 2.22847e-05
9 *1461:CLK 0.000295406
10 *1511:CLK 1.58134e-05
11 *1462:CLK 0.000117109
12 *1494:CLK 2.22847e-05
13 *1495:CLK 6.35353e-05
14 *1540:X 0.00035923
15 *331:133 0.000609752
16 *331:114 0.000576247
17 *331:105 0.000476771
18 *331:48 0.000885566
19 *331:46 0.000913078
20 *331:38 0.000755893
21 *331:36 0.000572933
22 *331:34 0.0005127
23 *331:23 0.000448093
24 *331:12 0.000340947
25 *331:8 0.000681239
26 *1461:CLK *1397:A0 0
27 *1487:CLK *488:51 5.52238e-05
28 *1503:CLK *1194:A1 0
29 *1519:CLK *1203:A1 0
30 *1519:CLK *477:66 0
31 *1519:CLK *488:16 0.000125731
32 *331:23 *352:12 5.49544e-05
33 *331:34 *352:12 0.000352889
34 *331:38 *1193:A1 0
35 *331:38 *1206:A1 8.66439e-05
36 *331:38 *368:10 0
37 *331:46 *1206:A1 3.5707e-05
38 *331:46 *1395:A0 0
39 *331:46 *1593:A 1.3701e-05
40 *331:46 *368:10 0.000141132
41 *331:48 *368:10 0.000143375
42 *331:105 *1206:A1 5.23735e-05
43 *331:114 *1207:A1 8.49779e-05
44 *331:114 *1589:A 2.57017e-05
45 *331:133 *1302:A0 9.41642e-05
46 *331:133 *1589:A 6.96806e-05
47 *331:133 *477:22 5.42961e-05
48 *331:133 *488:16 0.000567705
49 *1204:A1 *1487:CLK 0
50 *1206:A2 *1487:CLK 4.35793e-05
51 *1206:A2 *331:36 1.6163e-05
52 *1206:A2 *331:38 1.6806e-05
53 *1206:B1 *1487:CLK 0.000163744
54 *1206:B1 *331:36 0.000205013
55 *1206:B1 *331:38 8.11955e-05
56 *1206:B1 *331:105 6.05161e-06
57 *1207:B1 *331:105 0.000257745
58 *1207:B1 *331:114 3.24049e-05
59 *1212:B2 *1519:CLK 0
60 *1212:B2 *331:133 0
61 *1213:S *331:114 0.000338425
62 *1213:S *331:133 0.000190412
63 *1214:A *331:133 3.06035e-05
64 *1302:S *1487:CLK 9.15842e-06
65 *1302:S *331:36 0.000169095
66 *1303:A *331:105 9.84673e-05
67 *1305:A *1461:CLK 0
68 *1342:A *1486:CLK 6.05161e-06
69 *1342:A *331:133 9.97164e-05
70 *1359:S *331:34 0.000180875
71 *1360:A *331:105 9.67754e-05
72 *1362:A *1495:CLK 0.000272338
73 *1362:A *1503:CLK 4.46186e-06
74 *1362:A *331:12 3.62206e-05
75 *1362:A *331:23 9.84729e-05
76 *1380:A *1503:CLK 0.000127439
77 *1417:A *1519:CLK 0.000127246
78 *1460:D *331:105 1.65914e-05
79 *1460:D *331:114 0.000128986
80 *1461:D *1461:CLK 0
81 *1470:D *331:133 2.84109e-05
82 *1471:D *331:38 0.000128146
83 *1486:D *1486:CLK 5.49489e-05
84 *1494:D *331:34 0.000140921
85 *1495:D *1495:CLK 0.000124795
86 *1510:D *331:46 1.64343e-05
87 *1511:D *1462:CLK 2.44318e-05
88 *1511:D *1511:CLK 6.62469e-05
89 *1511:D *331:48 0.000106573
90 *1540:A *1503:CLK 0.000386717
91 *163:203 *1487:CLK 6.35117e-05
92 *163:203 *331:38 1.92384e-05
93 *167:142 *1487:CLK 9.10625e-05
94 *168:30 *331:8 0.000580978
95 *268:67 *1495:CLK 3.74966e-05
96 *268:67 *331:23 0.000104179
97 *268:67 *331:34 3.78432e-05
98 *288:36 *1462:CLK 3.47797e-05
99 *288:36 *331:48 5.26437e-05
*RES
1 *1540:X *331:8 19.2643 
2 *331:8 *331:12 5.83929 
3 *331:12 *1495:CLK 12.3179 
4 *331:12 *331:23 4.23214 
5 *331:23 *1494:CLK 9.72857 
6 *331:23 *331:34 10.375 
7 *331:34 *331:36 2.85714 
8 *331:36 *331:38 5.58929 
9 *331:38 *331:46 11.9286 
10 *331:46 *331:48 7.92857 
11 *331:48 *1462:CLK 11.4964 
12 *331:48 *1511:CLK 10.2955 
13 *331:48 *1461:CLK 23.3357 
14 *331:46 *1510:CLK 9.72857 
15 *331:38 *1471:CLK 15.175 
16 *331:36 *331:105 11.2143 
17 *331:105 *1460:CLK 9.3 
18 *331:105 *331:114 7.53571 
19 *331:114 *1470:CLK 9.3 
20 *331:114 *331:133 23.3393 
21 *331:133 *1486:CLK 14.3357 
22 *331:133 *1519:CLK 18.4786 
23 *331:34 *1487:CLK 19.0143 
24 *331:8 *1503:CLK 19.3893 
*END

*D_NET *332 0.0116606
*CONN
*I *1527:CLK I *D sky130_fd_sc_hd__dfxtp_1
*I *1525:CLK I *D sky130_fd_sc_hd__dfxtp_1
*I *1517:CLK I *D sky130_fd_sc_hd__dfxtp_1
*I *1463:CLK I *D sky130_fd_sc_hd__dfrtp_1
*I *1518:CLK I *D sky130_fd_sc_hd__dfxtp_1
*I *1501:CLK I *D sky130_fd_sc_hd__dfxtp_1
*I *1533:CLK I *D sky130_fd_sc_hd__dfxtp_1
*I *1526:CLK I *D sky130_fd_sc_hd__dfxtp_1
*I *1502:CLK I *D sky130_fd_sc_hd__dfxtp_1
*I *1541:X O *D sky130_fd_sc_hd__clkbuf_16
*CAP
1 *1527:CLK 0.000189255
2 *1525:CLK 0
3 *1517:CLK 0
4 *1463:CLK 0
5 *1518:CLK 0.000295126
6 *1501:CLK 2.22847e-05
7 *1533:CLK 0.000239301
8 *1526:CLK 0.000285528
9 *1502:CLK 0.000126324
10 *1541:X 0
11 *332:86 0.000543075
12 *332:78 0.000585619
13 *332:74 0.000753072
14 *332:46 0.000355199
15 *332:42 0.000725282
16 *332:29 0.000821097
17 *332:10 0.000825488
18 *332:4 0.000569118
19 *1526:CLK *1450:A0 5.50052e-05
20 *1526:CLK *1548:A 9.31523e-05
21 *1533:CLK *390:12 5.65955e-05
22 *332:10 *1201:A1 0
23 *332:10 *488:108 3.92757e-05
24 *332:29 *1210:A1 0
25 *332:46 *390:12 5.68722e-05
26 *332:74 *1219:A1 4.51611e-05
27 *332:74 *1219:B2 0.000139913
28 *332:74 *1572:A 2.61337e-05
29 *332:86 *1430:A0 0.000126439
30 *1201:A2 *332:10 0
31 *1201:B1 *332:10 0
32 *1201:B1 *332:29 0
33 *1201:B1 *332:42 0
34 *1209:A1 *1518:CLK 2.12647e-05
35 *1209:A2 *1518:CLK 0.000133463
36 *1211:B1 *1518:CLK 1.17091e-05
37 *1211:C1 *1526:CLK 8.64573e-05
38 *1219:A2 *332:74 2.59355e-05
39 *1220:C1 *332:74 0.000188586
40 *1220:C1 *332:78 0.000182722
41 *1236:B1 *1533:CLK 9.70743e-05
42 *1463:D *1518:CLK 1.21398e-05
43 *1501:D *332:46 8.52807e-05
44 *1502:D *1502:CLK 0.000140979
45 *1502:D *332:10 8.6229e-06
46 *1502:D *332:29 0.000111067
47 *1525:D *332:78 1.64343e-05
48 *1533:D *1533:CLK 1.64343e-05
49 *160:97 *1533:CLK 0.000497731
50 *160:97 *332:74 6.47499e-05
51 *160:97 *332:78 0.000338421
52 *160:113 *1518:CLK 0.000168969
53 *160:113 *332:86 9.43709e-05
54 *165:82 *1533:CLK 8.62823e-05
55 *165:82 *332:46 1.68914e-05
56 *165:139 *1518:CLK 0
57 *166:76 *1502:CLK 0.000342325
58 *166:120 *332:86 0.000125949
59 *176:45 *1526:CLK 0.000270646
60 *176:64 *332:42 0
61 *176:64 *332:74 0
62 *268:86 *332:10 2.41224e-05
63 *278:31 *1527:CLK 0.00018372
64 *278:31 *332:10 8.71761e-05
65 *299:109 *332:86 0.000190162
66 *299:135 *332:86 0.000152374
67 *319:38 *332:10 9.67101e-05
68 *319:38 *332:29 0.000214084
69 *319:47 *332:29 5.35475e-05
70 *319:47 *332:42 0.00018187
71 *319:78 *332:42 0.000197701
72 *319:78 *332:74 0.000160263
*RES
1 *1541:X *332:4 9.3 
2 *332:4 *332:10 11.0536 
3 *332:10 *1502:CLK 17.6571 
4 *332:10 *332:29 5.94643 
5 *332:29 *1526:CLK 20.5143 
6 *332:29 *332:42 4.98214 
7 *332:42 *332:46 6.26786 
8 *332:46 *1533:CLK 16.425 
9 *332:46 *1501:CLK 9.72857 
10 *332:42 *332:74 13.6071 
11 *332:74 *332:78 7.94643 
12 *332:78 *332:86 16.2679 
13 *332:86 *1518:CLK 24.3536 
14 *332:86 *1463:CLK 9.3 
15 *332:78 *1517:CLK 9.3 
16 *332:74 *1525:CLK 9.3 
17 *332:4 *1527:CLK 13.0321 
*END

*D_NET *333 0.0124443
*CONN
*I *1506:CLK I *D sky130_fd_sc_hd__dfxtp_1
*I *1483:CLK I *D sky130_fd_sc_hd__dfxtp_1
*I *1481:CLK I *D sky130_fd_sc_hd__dfxtp_1
*I *1458:CLK I *D sky130_fd_sc_hd__dfxtp_1
*I *1508:CLK I *D sky130_fd_sc_hd__dfxtp_1
*I *1469:CLK I *D sky130_fd_sc_hd__dfrtp_1
*I *1489:CLK I *D sky130_fd_sc_hd__dfxtp_1
*I *1455:CLK I *D sky130_fd_sc_hd__dfxtp_1
*I *1505:CLK I *D sky130_fd_sc_hd__dfxtp_1
*I *1466:CLK I *D sky130_fd_sc_hd__dfrtp_1
*I *1542:X O *D sky130_fd_sc_hd__clkbuf_16
*CAP
1 *1506:CLK 0.000150082
2 *1483:CLK 0.000372866
3 *1481:CLK 0
4 *1458:CLK 0.000219235
5 *1508:CLK 2.85203e-05
6 *1469:CLK 0.000111031
7 *1489:CLK 0.000140441
8 *1455:CLK 0.000395597
9 *1505:CLK 0
10 *1466:CLK 0.000142362
11 *1542:X 0
12 *333:98 0.00069469
13 *333:91 0.000531292
14 *333:39 0.00104306
15 *333:24 0.000921858
16 *333:22 0.000577936
17 *333:20 0.000980352
18 *333:16 0.00105055
19 *333:10 0.000928128
20 *333:4 0.000610283
21 *1455:CLK *362:10 5.23142e-05
22 *1458:CLK *365:16 6.8646e-06
23 *1458:CLK *438:42 6.54496e-05
24 *1466:CLK *430:33 0
25 *1469:CLK *430:33 0
26 *1483:CLK *437:112 0.000181276
27 *333:10 *438:42 0.000203297
28 *333:16 *365:16 9.84729e-05
29 *333:20 *1222:A0 0.00022367
30 *333:22 *430:33 0
31 *333:24 *430:33 0
32 *1298:S *333:91 9.58632e-05
33 *1298:S *333:98 2.42516e-05
34 *1299:A *333:16 6.05161e-06
35 *1350:A *333:39 0.000224583
36 *1355:S *333:20 1.34548e-05
37 *1356:A *333:20 5.65955e-05
38 *1455:D *1455:CLK 0.000139913
39 *1458:D *1458:CLK 0.000103097
40 *1458:D *333:10 5.54817e-06
41 *1481:D *333:98 9.81617e-05
42 *1483:D *1483:CLK 3.4846e-06
43 *1489:D *333:39 3.18676e-05
44 *1505:D *1455:CLK 0.000129031
45 *1508:D *333:16 8.63855e-05
46 *1627:A *333:22 0
47 *158:135 *333:16 3.08382e-06
48 *163:45 *333:20 0.000326685
49 *165:171 *1483:CLK 0
50 *167:38 *333:10 2.12647e-05
51 *167:38 *333:91 4.37451e-05
52 *203:12 *333:16 0.000188225
53 *242:12 *333:10 0
54 *245:85 *1506:CLK 0.000224404
55 *245:85 *333:98 0.000124393
56 *258:56 *1483:CLK 0
57 *258:60 *1483:CLK 0.000193969
58 *288:100 *1506:CLK 0.000238299
59 *288:100 *333:91 0.000138834
60 *288:100 *333:98 0.000193524
*RES
1 *1542:X *333:4 9.3 
2 *333:4 *333:10 8.71429 
3 *333:10 *333:16 13.2679 
4 *333:16 *333:20 14.4821 
5 *333:20 *333:22 5.58929 
6 *333:22 *333:24 2.25 
7 *333:24 *1466:CLK 16.3536 
8 *333:24 *333:39 15.7321 
9 *333:39 *1505:CLK 9.3 
10 *333:39 *1455:CLK 16.8179 
11 *333:22 *1489:CLK 15.9786 
12 *333:20 *1469:CLK 15.7464 
13 *333:16 *1508:CLK 9.72857 
14 *333:10 *1458:CLK 18.0321 
15 *333:4 *333:91 7.01786 
16 *333:91 *1481:CLK 9.3 
17 *333:91 *333:98 4.64286 
18 *333:98 *1483:CLK 26.0679 
19 *333:98 *1506:CLK 13.9429 
*END

*D_NET *334 0.011594
*CONN
*I *1529:CLK I *D sky130_fd_sc_hd__dfxtp_1
*I *1497:CLK I *D sky130_fd_sc_hd__dfxtp_1
*I *1500:CLK I *D sky130_fd_sc_hd__dfxtp_1
*I *1532:CLK I *D sky130_fd_sc_hd__dfxtp_1
*I *1516:CLK I *D sky130_fd_sc_hd__dfxtp_1
*I *1468:CLK I *D sky130_fd_sc_hd__dfrtp_1
*I *1492:CLK I *D sky130_fd_sc_hd__dfxtp_1
*I *1513:CLK I *D sky130_fd_sc_hd__dfxtp_1
*I *1524:CLK I *D sky130_fd_sc_hd__dfxtp_1
*I *1484:CLK I *D sky130_fd_sc_hd__dfxtp_1
*I *1543:X O *D sky130_fd_sc_hd__clkbuf_16
*CAP
1 *1529:CLK 0.000138533
2 *1497:CLK 0.000170106
3 *1500:CLK 0
4 *1532:CLK 0.000282425
5 *1516:CLK 0
6 *1468:CLK 0.000451647
7 *1492:CLK 0.000314166
8 *1513:CLK 0.000146329
9 *1524:CLK 0
10 *1484:CLK 0.000287454
11 *1543:X 0.000100289
12 *334:104 0.000618775
13 *334:95 0.000357026
14 *334:86 0.000817933
15 *334:55 0.00128652
16 *334:49 0.000558776
17 *334:32 0.00100358
18 *334:23 0.000819181
19 *334:21 0.000709207
20 *334:8 0.000608333
21 *1484:CLK *1410:A1 0
22 *1484:CLK *438:75 0.000284808
23 *1492:CLK *430:33 0
24 *1497:CLK *1373:A0 2.16394e-05
25 *1513:CLK *1639:A 0
26 *334:21 *1410:A1 0
27 *334:32 *1253:A 2.29734e-05
28 *334:32 *373:8 5.19842e-06
29 *334:55 *1639:A 0
30 *334:55 *420:10 0
31 *334:55 *430:33 0
32 *334:86 *1404:A0 3.92854e-05
33 *334:86 *422:14 0
34 *334:95 *389:8 2.11336e-05
35 *334:104 *1373:A1 0.000402437
36 *334:104 *389:8 0.000148022
37 *1223:A *1492:CLK 0
38 *1224:A2 *1484:CLK 1.02504e-05
39 *1228:A2 *1497:CLK 7.8195e-05
40 *1228:B1 *1497:CLK 0.000141734
41 *1254:A2 *334:32 5.30346e-05
42 *1314:A *1492:CLK 2.27416e-05
43 *1373:S *334:104 2.85234e-05
44 *1374:A *1529:CLK 0
45 *1404:S *334:21 0.000217163
46 *1404:S *334:86 0.000164554
47 *1446:S *334:104 0.000611965
48 *1468:RESET_B *1492:CLK 0
49 *1500:D *334:104 5.7298e-05
50 *1516:D *334:32 1.53273e-05
51 *1524:D *334:21 0
52 *1529:D *1529:CLK 4.04221e-05
53 *1532:D *1532:CLK 0.000360922
54 *1532:D *334:86 3.17784e-05
55 *142:132 *1484:CLK 0
56 *142:132 *334:21 0
57 *142:132 *334:86 0
58 *254:61 *1492:CLK 9.01334e-05
59 *254:82 *334:8 5.41494e-05
*RES
1 *1543:X *334:8 15.1571 
2 *334:8 *1484:CLK 19.55 
3 *334:8 *334:21 4.375 
4 *334:21 *334:23 4.5 
5 *334:23 *1524:CLK 9.3 
6 *334:23 *334:32 9.89286 
7 *334:32 *1513:CLK 20.6036 
8 *334:32 *334:49 0.732143 
9 *334:49 *334:55 13.1429 
10 *334:55 *1492:CLK 19.925 
11 *334:55 *1468:CLK 19.175 
12 *334:49 *1516:CLK 9.3 
13 *334:21 *334:86 14.0357 
14 *334:86 *1532:CLK 15.175 
15 *334:86 *334:95 0.946429 
16 *334:95 *1500:CLK 9.3 
17 *334:95 *334:104 14.0714 
18 *334:104 *1497:CLK 17.4071 
19 *334:104 *1529:CLK 16.3536 
*END

*D_NET *335 0.0155378
*CONN
*I *1459:CLK I *D sky130_fd_sc_hd__dfxtp_1
*I *1504:CLK I *D sky130_fd_sc_hd__dfxtp_1
*I *1454:CLK I *D sky130_fd_sc_hd__dfxtp_1
*I *1480:CLK I *D sky130_fd_sc_hd__dfxtp_1
*I *1485:CLK I *D sky130_fd_sc_hd__dfxtp_1
*I *1465:CLK I *D sky130_fd_sc_hd__dfrtp_1
*I *1509:CLK I *D sky130_fd_sc_hd__dfxtp_1
*I *1490:CLK I *D sky130_fd_sc_hd__dfxtp_1
*I *1456:CLK I *D sky130_fd_sc_hd__dfxtp_1
*I *1523:CLK I *D sky130_fd_sc_hd__dfxtp_1
*I *1493:CLK I *D sky130_fd_sc_hd__dfxtp_1
*I *1544:X O *D sky130_fd_sc_hd__clkbuf_16
*CAP
1 *1459:CLK 0
2 *1504:CLK 0.000149235
3 *1454:CLK 0
4 *1480:CLK 0.000281916
5 *1485:CLK 0.000295831
6 *1465:CLK 0.000415022
7 *1509:CLK 0
8 *1490:CLK 0.000346174
9 *1456:CLK 0.000201464
10 *1523:CLK 0.000270562
11 *1493:CLK 0
12 *1544:X 6.59538e-05
13 *335:112 0.000577747
14 *335:110 0.000212578
15 *335:106 0.00056631
16 *335:89 0.000659239
17 *335:85 0.000600413
18 *335:40 0.000694888
19 *335:27 0.000860192
20 *335:16 0.000929614
21 *335:12 0.000567223
22 *335:8 0.000706636
23 *1465:CLK *1300:A1 0.000520895
24 *1480:CLK *1261:A1 0.000249938
25 *1480:CLK *393:14 1.21371e-05
26 *1490:CLK *1387:A0 0.000122278
27 *1504:CLK *1260:B2 0.00021286
28 *1523:CLK *340:14 3.92854e-05
29 *335:12 *1572:A 7.90803e-05
30 *335:16 *350:6 7.55952e-05
31 *335:27 *1239:A1 5.91336e-05
32 *335:85 *1215:B1 0.00015032
33 *335:85 *1221:A1 5.18145e-05
34 *335:106 *1260:B2 0.00012199
35 *335:106 *1290:A0 4.953e-05
36 *335:110 *1329:A1 9.41532e-05
37 *335:110 *393:14 0.000109492
38 *335:110 *401:76 8.95645e-05
39 *1215:A2 *1465:CLK 1.3701e-05
40 *1216:A2 *1485:CLK 1.69976e-05
41 *1216:B1 *1465:CLK 0.000246718
42 *1221:A2 *335:106 6.93626e-06
43 *1221:B1 *335:85 8.15692e-05
44 *1221:B2 *1465:CLK 1.89308e-05
45 *1221:B2 *335:85 5.66971e-05
46 *1239:A2 *335:27 0.000315158
47 *1239:B1 *335:27 0.000142856
48 *1239:B2 *1523:CLK 0
49 *1240:A1 *1490:CLK 0.000137743
50 *1240:A1 *335:27 5.71472e-05
51 *1240:A1 *335:40 0.000147557
52 *1258:A1 *1465:CLK 7.15905e-06
53 *1258:S *1485:CLK 4.94673e-05
54 *1261:A2 *1480:CLK 1.59373e-05
55 *1266:A2 *335:106 6.14702e-06
56 *1291:A *1480:CLK 1.18064e-05
57 *1291:A *1485:CLK 9.76046e-05
58 *1300:S *1465:CLK 2.89016e-05
59 *1301:A *1465:CLK 0.000171761
60 *1301:A *335:106 9.12967e-05
61 *1340:A *1485:CLK 0.00013921
62 *1352:A *1490:CLK 5.41609e-05
63 *1393:S *335:85 5.88702e-05
64 *1394:A *335:12 3.48235e-05
65 *1394:A *335:85 3.67452e-05
66 *1427:A *335:27 5.33334e-05
67 *1454:D *335:110 0.000110857
68 *1459:D *1465:CLK 1.90223e-05
69 *1459:D *335:106 6.14514e-05
70 *1465:D *1465:CLK 2.84026e-05
71 *1490:D *1490:CLK 0.000128093
72 *1493:D *335:16 5.95099e-05
73 *1509:D *335:16 0.000136951
74 *158:135 *1490:CLK 0.000333894
75 *158:158 *1504:CLK 0.000224573
76 *158:158 *335:106 1.94879e-05
77 *165:90 *1465:CLK 5.00723e-05
78 *165:90 *335:106 3.17297e-05
79 *167:65 *1490:CLK 0.000107985
80 *176:77 *335:12 4.18397e-05
81 *176:77 *335:85 0
82 *227:8 *335:8 9.90431e-05
83 *245:85 *1456:CLK 0.000211147
84 *258:40 *1523:CLK 5.71472e-05
85 *258:110 *1480:CLK 0.000129868
86 *288:100 *1456:CLK 0.000146646
87 *299:22 *1490:CLK 0.000156594
88 *299:22 *1523:CLK 0.000172465
89 *299:22 *335:40 0.000103263
90 *299:109 *1480:CLK 0.000143804
91 *299:109 *1485:CLK 0.000171451
92 *309:23 *1523:CLK 0
93 *309:23 *335:40 0
94 *319:78 *335:85 0
95 *328:20 *335:16 0.000187922
96 *328:20 *335:27 6.63116e-05
*RES
1 *1544:X *335:8 14.7464 
2 *335:8 *335:12 6.44643 
3 *335:12 *335:16 10 
4 *335:16 *1493:CLK 9.3 
5 *335:16 *335:27 13.6786 
6 *335:27 *1523:CLK 19.925 
7 *335:27 *335:40 4.07143 
8 *335:40 *1456:CLK 18.4786 
9 *335:40 *1490:CLK 24.3893 
10 *335:12 *1509:CLK 9.3 
11 *335:8 *335:85 14.8214 
12 *335:85 *335:89 5.03571 
13 *335:89 *1465:CLK 25.1393 
14 *335:89 *335:106 4.67857 
15 *335:106 *335:110 9.14286 
16 *335:110 *335:112 4.5 
17 *335:112 *1485:CLK 20.3 
18 *335:112 *1480:CLK 20.0143 
19 *335:110 *1454:CLK 9.3 
20 *335:106 *1504:CLK 17.6214 
21 *335:85 *1459:CLK 9.3 
*END

*D_NET *336 0.0150606
*CONN
*I *1482:CLK I *D sky130_fd_sc_hd__dfxtp_1
*I *1464:CLK I *D sky130_fd_sc_hd__dfrtp_1
*I *1512:CLK I *D sky130_fd_sc_hd__dfxtp_1
*I *1520:CLK I *D sky130_fd_sc_hd__dfxtp_1
*I *1496:CLK I *D sky130_fd_sc_hd__dfxtp_1
*I *1528:CLK I *D sky130_fd_sc_hd__dfxtp_1
*I *1530:CLK I *D sky130_fd_sc_hd__dfxtp_1
*I *1498:CLK I *D sky130_fd_sc_hd__dfxtp_1
*I *1522:CLK I *D sky130_fd_sc_hd__dfxtp_1
*I *1514:CLK I *D sky130_fd_sc_hd__dfxtp_1
*I *1488:CLK I *D sky130_fd_sc_hd__dfxtp_1
*I *1467:CLK I *D sky130_fd_sc_hd__dfrtp_1
*I *1521:CLK I *D sky130_fd_sc_hd__dfxtp_1
*I *1545:X O *D sky130_fd_sc_hd__clkbuf_16
*CAP
1 *1482:CLK 0
2 *1464:CLK 0.00016245
3 *1512:CLK 9.61663e-05
4 *1520:CLK 3.12428e-05
5 *1496:CLK 0
6 *1528:CLK 0
7 *1530:CLK 0.000123573
8 *1498:CLK 7.16224e-05
9 *1522:CLK 7.1203e-05
10 *1514:CLK 0.000150225
11 *1488:CLK 0.000157795
12 *1467:CLK 0.000123605
13 *1521:CLK 2.32789e-05
14 *1545:X 0.000231526
15 *336:144 0.00111764
16 *336:133 0.00124215
17 *336:99 0.000419317
18 *336:97 0.000503523
19 *336:87 0.000587801
20 *336:70 0.000431639
21 *336:66 0.000647258
22 *336:55 0.000728798
23 *336:40 0.00057861
24 *336:34 0.000374902
25 *336:12 0.000447849
26 *336:6 0.000821817
27 *1464:CLK *1402:A0 9.38399e-05
28 *1488:CLK *1596:A 0
29 *1488:CLK *339:14 5.52238e-05
30 *1498:CLK *1442:A1 0.000134452
31 *1512:CLK *401:36 0.000100831
32 *1514:CLK *1638:A 4.63685e-05
33 *1520:CLK *1244:A 1.97695e-05
34 *1522:CLK *1582:A 9.17062e-05
35 *1530:CLK *1246:B2 3.17016e-05
36 *1530:CLK *1255:B2 0.000197173
37 *1530:CLK *434:12 0.000101704
38 *336:40 *1406:A1 7.72704e-05
39 *336:55 *1596:A 0
40 *336:55 *339:14 0
41 *336:66 *1638:A 9.98043e-05
42 *336:70 *1406:A0 7.83659e-05
43 *336:70 *1638:A 2.26327e-05
44 *336:87 *1638:A 0.000176074
45 *336:99 *1442:A1 0.000128628
46 *336:133 *1638:A 2.60984e-05
47 *336:133 *371:6 0.00014285
48 *1241:A *1467:CLK 4.03577e-05
49 *1241:A *1521:CLK 2.44318e-05
50 *1257:B2 *336:12 0
51 *1263:A2 *1464:CLK 0
52 *1263:A2 *1512:CLK 0.000102545
53 *1263:A2 *336:144 8.54705e-05
54 *1265:A2 *1522:CLK 0.000267731
55 *1265:B1 *336:144 0.000136039
56 *1334:A *336:34 0.000572143
57 *1351:S *1488:CLK 2.27416e-05
58 *1365:S *336:97 0.000197809
59 *1407:A *336:55 0
60 *1407:A *336:70 0.000121842
61 *1407:A *336:87 0.000185694
62 *1467:RESET_B *1467:CLK 0
63 *1482:D *336:34 2.76645e-05
64 *1482:D *336:40 0.000127114
65 *1488:D *1488:CLK 4.46186e-06
66 *1496:D *336:87 3.32132e-06
67 *1498:D *1498:CLK 1.64343e-05
68 *1514:D *336:55 0.00010138
69 *1520:D *336:144 4.87669e-06
70 *1522:D *336:55 0.000192976
71 *1545:A *336:34 0.000348207
72 *160:150 *336:144 3.81416e-06
73 *160:154 *336:133 5.39629e-06
74 *160:154 *336:144 4.57413e-05
75 *163:70 *1467:CLK 1.90936e-05
76 *163:70 *336:12 3.23542e-05
77 *163:86 *336:6 0.000315165
78 *163:86 *336:34 0.000718074
79 *163:86 *336:40 9.33252e-05
80 *176:87 *1530:CLK 0
81 *254:82 *1521:CLK 3.67142e-05
82 *299:22 *1467:CLK 2.30116e-06
83 *299:22 *336:12 3.84385e-05
84 *299:46 *1467:CLK 1.90936e-05
85 *299:46 *1521:CLK 5.52238e-05
86 *299:80 *1467:CLK 9.6475e-06
87 *299:80 *336:55 5.25862e-06
88 *319:78 *336:55 0
89 *319:104 *1498:CLK 9.77409e-05
90 *319:104 *336:97 1.83053e-05
91 *319:104 *336:99 0.000193189
*RES
1 *1545:X *336:6 12.7107 
2 *336:6 *336:12 8.625 
3 *336:12 *1521:CLK 14.7464 
4 *336:12 *1467:CLK 16.05 
5 *336:6 *336:34 11.125 
6 *336:34 *336:40 7.51786 
7 *336:40 *1488:CLK 16.5857 
8 *336:40 *336:55 10.3929 
9 *336:55 *1514:CLK 11.3893 
10 *336:55 *336:66 3 
11 *336:66 *336:70 6.14286 
12 *336:70 *1522:CLK 16.3893 
13 *336:70 *336:87 10.9643 
14 *336:87 *336:97 14.6786 
15 *336:97 *336:99 5.05357 
16 *336:99 *1498:CLK 11.8893 
17 *336:99 *1530:CLK 21.8179 
18 *336:97 *1528:CLK 9.3 
19 *336:87 *1496:CLK 9.3 
20 *336:66 *336:133 4.23214 
21 *336:133 *1520:CLK 10.0321 
22 *336:133 *336:144 10.8214 
23 *336:144 *1512:CLK 20.3714 
24 *336:144 *1464:CLK 12.3179 
25 *336:34 *1482:CLK 9.3 
*END

*D_NET *337 0.00296774
*CONN
*I *1266:A1 I *D sky130_fd_sc_hd__o22a_1
*I *1592:A I *D sky130_fd_sc_hd__dlygate4sd3_1
*I *1480:Q O *D sky130_fd_sc_hd__dfxtp_1
*CAP
1 *1266:A1 0.000712755
2 *1592:A 0.0001351
3 *1480:Q 0
4 *337:6 0.000847855
5 *1266:A1 *1267:A0 5.58416e-05
6 *1266:A1 *431:18 0.00010326
7 *1592:A *431:18 0.000250201
8 *1266:A2 *1266:A1 2.89114e-05
9 *1266:B1 *1266:A1 0.00018077
10 *1267:A1 *1266:A1 2.27766e-05
11 *1267:S *1266:A1 8.13683e-05
12 *1454:D *1266:A1 0.00022459
13 *163:86 *1266:A1 0.000139685
14 *254:113 *1266:A1 4.75812e-05
15 *254:113 *1592:A 0.000137045
*RES
1 *1480:Q *337:6 13.8 
2 *337:6 *1592:A 17.9071 
3 *337:6 *1266:A1 28.0143 
*END

*D_NET *338 0.00148439
*CONN
*I *1549:A I *D sky130_fd_sc_hd__dlygate4sd3_1
*I *1257:A1 I *D sky130_fd_sc_hd__o22a_1
*I *1481:Q O *D sky130_fd_sc_hd__dfxtp_1
*CAP
1 *1549:A 6.97767e-05
2 *1257:A1 0.000257829
3 *1481:Q 0.000121786
4 *338:8 0.000449392
5 *1257:B1 *1257:A1 3.15406e-05
6 *1257:B2 *1257:A1 0.00019286
7 *1257:B2 *1549:A 0.000124019
8 *245:85 *338:8 0.000185118
9 *258:56 *1257:A1 5.20669e-05
*RES
1 *1481:Q *338:8 15.5679 
2 *338:8 *1257:A1 18.9786 
3 *338:8 *1549:A 15.4429 
*END

*D_NET *339 0.00365174
*CONN
*I *1596:A I *D sky130_fd_sc_hd__dlygate4sd3_1
*I *1248:A1 I *D sky130_fd_sc_hd__o22a_1
*I *1482:Q O *D sky130_fd_sc_hd__dfxtp_1
*CAP
1 *1596:A 0.000272339
2 *1248:A1 0.000168571
3 *1482:Q 0.000453903
4 *339:14 0.000894813
5 *1248:A1 *1333:A0 0.00014183
6 *1596:A *1333:A0 0.000260519
7 *1596:A *433:20 1.30604e-05
8 *1596:A *433:22 6.8646e-06
9 *339:14 *1406:A1 3.22964e-05
10 *1247:B1 *1596:A 0.000228791
11 *1248:B2 *1248:A1 0.000109795
12 *1351:S *339:14 0.000104869
13 *1425:A *1596:A 0.000228791
14 *1488:CLK *1596:A 0
15 *1488:CLK *339:14 5.52238e-05
16 *1488:D *339:14 1.64343e-05
17 *163:86 *339:14 0.000137983
18 *258:85 *1248:A1 0.000383393
19 *258:110 *1248:A1 2.44318e-05
20 *258:110 *339:14 2.14658e-05
21 *319:78 *339:14 9.6365e-05
22 *336:55 *1596:A 0
23 *336:55 *339:14 0
*RES
1 *1482:Q *339:14 27.2643 
2 *339:14 *1248:A1 13.9607 
3 *339:14 *1596:A 24.8536 
*END

*D_NET *340 0.00140376
*CONN
*I *1239:A1 I *D sky130_fd_sc_hd__o22a_1
*I *1590:A I *D sky130_fd_sc_hd__dlygate4sd3_1
*I *1483:Q O *D sky130_fd_sc_hd__dfxtp_1
*CAP
1 *1239:A1 0.000233491
2 *1590:A 2.55329e-05
3 *1483:Q 0.000254887
4 *340:14 0.000513911
5 *340:14 *425:22 4.88132e-05
6 *1239:B1 *1239:A1 9.31893e-05
7 *1239:B1 *1590:A 5.71472e-05
8 *1523:CLK *340:14 3.92854e-05
9 *299:22 *340:14 7.83659e-05
10 *335:27 *1239:A1 5.91336e-05
*RES
1 *1483:Q *340:14 21.9429 
2 *340:14 *1590:A 10.2643 
3 *340:14 *1239:A1 13.55 
*END

*D_NET *341 0.00162673
*CONN
*I *1564:A I *D sky130_fd_sc_hd__dlygate4sd3_1
*I *1230:A1 I *D sky130_fd_sc_hd__o22a_1
*I *1484:Q O *D sky130_fd_sc_hd__dfxtp_1
*CAP
1 *1564:A 0.000201898
2 *1230:A1 0.000280328
3 *1484:Q 7.18577e-05
4 *341:6 0.000554084
5 *1230:A1 *1298:A1 0
6 *1230:A1 *1337:A0 0
7 *1230:A1 *455:50 0
8 *1564:A *438:75 7.82514e-05
9 *341:6 *1337:A0 5.60962e-05
10 *341:6 *438:75 1.30607e-05
11 *1230:A2 *1230:A1 1.25116e-05
12 *1230:B2 *1230:A1 1.05731e-05
13 *1332:A *1230:A1 8.12788e-05
14 *258:60 *1230:A1 0.000149601
15 *258:85 *1230:A1 0.000117189
*RES
1 *1484:Q *341:6 10.2464 
2 *341:6 *1230:A1 24.3893 
3 *341:6 *1564:A 12.2107 
*END

*D_NET *342 0.00351388
*CONN
*I *1594:A I *D sky130_fd_sc_hd__dlygate4sd3_1
*I *1221:A1 I *D sky130_fd_sc_hd__o22a_1
*I *1485:Q O *D sky130_fd_sc_hd__dfxtp_1
*CAP
1 *1594:A 8.67476e-05
2 *1221:A1 0.00100125
3 *1485:Q 0.00010696
4 *342:12 0.00119495
5 *1221:A1 *1216:A1 0.000225995
6 *1221:A1 *1339:A0 0.000227921
7 *342:12 *431:18 0.00014925
8 *1216:A2 *1221:A1 0.00015999
9 *1221:B1 *1221:A1 6.03261e-05
10 *1339:S *1221:A1 0.000161132
11 *1459:D *1221:A1 9.59189e-06
12 *254:113 *342:12 7.79481e-05
13 *335:85 *1221:A1 5.18145e-05
*RES
1 *1485:Q *342:12 20.7821 
2 *342:12 *1221:A1 26.05 
3 *342:12 *1594:A 10.6571 
*END

*D_NET *343 0.00266658
*CONN
*I *1587:A I *D sky130_fd_sc_hd__dlygate4sd3_1
*I *1212:A1 I *D sky130_fd_sc_hd__o22a_1
*I *1486:Q O *D sky130_fd_sc_hd__dfxtp_1
*CAP
1 *1587:A 5.06392e-05
2 *1212:A1 0.000486992
3 *1486:Q 7.62751e-05
4 *343:10 0.000613906
5 *1212:A1 *1341:A0 0.000225809
6 *1212:A1 *1581:A 1.97695e-05
7 *1212:A1 *477:12 9.31893e-05
8 *1212:A1 *477:22 0.000153176
9 *1587:A *477:12 2.14658e-05
10 *343:10 *413:12 0.000153054
11 *1212:B1 *1212:A1 0.000178593
12 *1341:S *1212:A1 0.000593707
*RES
1 *1486:Q *343:10 20.2464 
2 *343:10 *1212:A1 21.2821 
3 *343:10 *1587:A 10.2464 
*END

*D_NET *344 0.0012762
*CONN
*I *1203:A1 I *D sky130_fd_sc_hd__o22a_1
*I *1584:A I *D sky130_fd_sc_hd__dlygate4sd3_1
*I *1487:Q O *D sky130_fd_sc_hd__dfxtp_1
*CAP
1 *1203:A1 8.60451e-05
2 *1584:A 0.000111944
3 *1487:Q 0.000405997
4 *344:6 0.000603986
5 *1212:B2 *1203:A1 6.42338e-05
6 *1342:A *1584:A 3.99614e-06
7 *1486:D *1584:A 0
8 *1519:CLK *1203:A1 0
*RES
1 *1487:Q *344:6 14.3536 
2 *344:6 *1584:A 11.8 
3 *344:6 *1203:A1 19.9429 
*END

*D_NET *345 0.00408681
*CONN
*I *1567:A I *D sky130_fd_sc_hd__dlygate4sd3_1
*I *1260:B2 I *D sky130_fd_sc_hd__a22o_1
*I *1488:Q O *D sky130_fd_sc_hd__dfxtp_1
*CAP
1 *1567:A 6.18572e-05
2 *1260:B2 0.000673491
3 *1488:Q 0.000295887
4 *345:12 0.00103124
5 *1260:B2 *1260:A1 0.000177591
6 *1260:B2 *401:54 0.000313061
7 *1260:B2 *438:96 3.97285e-05
8 *1567:A *401:54 0.000119618
9 *345:12 *361:8 0.000224577
10 *1215:A2 *1260:B2 4.11486e-05
11 *1261:B1 *1260:B2 5.7057e-05
12 *1266:A2 *1260:B2 3.11713e-05
13 *1384:A *1260:B2 0
14 *1504:CLK *1260:B2 0.00021286
15 *1504:D *345:12 0.000568326
16 *158:158 *1260:B2 1.17968e-05
17 *165:90 *1260:B2 0
18 *165:90 *1567:A 0
19 *166:120 *1260:B2 9.84729e-05
20 *245:102 *1260:B2 6.93704e-06
21 *335:106 *1260:B2 0.00012199
*RES
1 *1488:Q *345:12 20.5321 
2 *345:12 *1260:B2 25.8 
3 *345:12 *1567:A 15.4429 
*END

*D_NET *346 0.00108913
*CONN
*I *1251:B2 I *D sky130_fd_sc_hd__a22o_1
*I *1574:A I *D sky130_fd_sc_hd__dlygate4sd3_1
*I *1489:Q O *D sky130_fd_sc_hd__dfxtp_1
*CAP
1 *1251:B2 7.50384e-05
2 *1574:A 0
3 *1489:Q 0.000454094
4 *346:16 0.000529132
5 *346:16 *1615:A 3.08664e-05
*RES
1 *1489:Q *346:16 25.2464 
2 *346:16 *1574:A 9.3 
3 *346:16 *1251:B2 10.6571 
*END

*D_NET *347 0.000803003
*CONN
*I *1577:A I *D sky130_fd_sc_hd__dlygate4sd3_1
*I *1242:B2 I *D sky130_fd_sc_hd__a22o_1
*I *1490:Q O *D sky130_fd_sc_hd__dfxtp_1
*CAP
1 *1577:A 8.35221e-05
2 *1242:B2 9.30152e-05
3 *1490:Q 9.27009e-05
4 *347:8 0.000269238
5 *1242:B2 *1242:A1 1.99099e-05
6 *1240:A1 *1242:B2 1.85361e-05
7 *1240:A1 *1577:A 0
8 *167:65 *347:8 0.00014285
9 *309:23 *1242:B2 2.2274e-05
10 *309:23 *1577:A 6.09572e-05
*RES
1 *1490:Q *347:8 15.1571 
2 *347:8 *1242:B2 15.4964 
3 *347:8 *1577:A 15.4429 
*END

*D_NET *348 0.00244295
*CONN
*I *1233:B2 I *D sky130_fd_sc_hd__a22o_1
*I *1566:A I *D sky130_fd_sc_hd__dlygate4sd3_1
*I *1491:Q O *D sky130_fd_sc_hd__dfxtp_1
*CAP
1 *1233:B2 0.000470118
2 *1566:A 0.000128783
3 *1491:Q 0.000140666
4 *348:8 0.000739567
5 *1233:B2 *364:8 2.89016e-05
6 *1233:B2 *444:31 0
7 *1566:A *444:31 7.85033e-05
8 *1491:CLK *1233:B2 1.92905e-05
9 *1507:D *1233:B2 0.000129031
10 *163:14 *348:8 6.23058e-05
11 *268:37 *1233:B2 0.000255828
12 *268:37 *1566:A 0.00012573
13 *330:16 *1233:B2 0.000264223
*RES
1 *1491:Q *348:8 15.5679 
2 *348:8 *1566:A 16.8 
3 *348:8 *1233:B2 24.3714 
*END

*D_NET *349 0.0013246
*CONN
*I *1224:B2 I *D sky130_fd_sc_hd__a22o_1
*I *1583:A I *D sky130_fd_sc_hd__dlygate4sd3_1
*I *1492:Q O *D sky130_fd_sc_hd__dfxtp_1
*CAP
1 *1224:B2 0.000143349
2 *1583:A 0
3 *1492:Q 0.000249685
4 *349:8 0.000393034
5 *1224:B2 *1224:A1 0.00010096
6 *1224:B2 *365:16 0.00010096
7 *1224:B2 *455:33 0.000149489
8 *1224:B2 *455:48 0.000122159
9 *349:8 *1355:A0 5.49544e-05
10 *349:8 *365:16 0
11 *349:8 *455:33 1.00073e-05
*RES
1 *1492:Q *349:8 13.4429 
2 *349:8 *1583:A 9.3 
3 *349:8 *1224:B2 13.9429 
*END

*D_NET *350 0.00264778
*CONN
*I *1215:B2 I *D sky130_fd_sc_hd__a22o_1
*I *1572:A I *D sky130_fd_sc_hd__dlygate4sd3_1
*I *1493:Q O *D sky130_fd_sc_hd__dfxtp_1
*CAP
1 *1215:B2 0.000425027
2 *1572:A 0.00026181
3 *1493:Q 0.000245758
4 *350:6 0.000932594
5 *1572:A *1219:B2 5.52238e-05
6 *1221:B2 *1215:B2 0
7 *1393:S *1215:B2 7.83366e-05
8 *1394:A *1572:A 0.000196269
9 *1509:D *1215:B2 6.8526e-05
10 *1509:D *350:6 4.58194e-05
11 *160:97 *1572:A 3.18676e-05
12 *176:64 *1572:A 2.8266e-06
13 *176:77 *1572:A 0.000122909
14 *319:78 *1572:A 0
15 *332:74 *1572:A 2.61337e-05
16 *335:12 *1572:A 7.90803e-05
17 *335:16 *350:6 7.55952e-05
*RES
1 *1493:Q *350:6 12.3 
2 *350:6 *1572:A 24.7286 
3 *350:6 *1215:B2 24.0679 
*END

*D_NET *351 0.00253901
*CONN
*I *1581:A I *D sky130_fd_sc_hd__dlygate4sd3_1
*I *1206:B2 I *D sky130_fd_sc_hd__a22o_1
*I *1494:Q O *D sky130_fd_sc_hd__dfxtp_1
*CAP
1 *1581:A 0.000523499
2 *1206:B2 0.000149936
3 *1494:Q 0
4 *351:4 0.000673435
5 *1581:A *1343:A0 0.000273269
6 *1581:A *1395:A0 6.05161e-06
7 *1204:A1 *1581:A 8.15044e-05
8 *1206:A2 *1581:A 5.56636e-05
9 *1206:B1 *1206:B2 0.000170755
10 *1212:A1 *1581:A 1.97695e-05
11 *1341:S *1581:A 8.71761e-05
12 *1359:S *1206:B2 5.96516e-05
13 *1359:S *1581:A 0.000224582
14 *163:203 *1206:B2 0.000170163
15 *258:14 *1581:A 4.35567e-05
*RES
1 *1494:Q *351:4 9.3 
2 *351:4 *1206:B2 21.9071 
3 *351:4 *1581:A 29.4607 
*END

*D_NET *352 0.00165675
*CONN
*I *1193:B2 I *D sky130_fd_sc_hd__a22o_1
*I *1573:A I *D sky130_fd_sc_hd__dlygate4sd3_1
*I *1495:Q O *D sky130_fd_sc_hd__dfxtp_1
*CAP
1 *1193:B2 3.4238e-05
2 *1573:A 0
3 *1495:Q 0.000353906
4 *352:12 0.000388144
5 *1193:B2 *1193:A1 0.000183726
6 *163:203 *352:12 3.91192e-05
7 *168:38 *1193:B2 0.000183726
8 *268:75 *352:12 6.60491e-05
9 *331:23 *352:12 5.49544e-05
10 *331:34 *352:12 0.000352889
*RES
1 *1495:Q *352:12 23.7643 
2 *352:12 *1573:A 9.3 
3 *352:12 *1193:B2 11.0679 
*END

*D_NET *353 0.000965449
*CONN
*I *1595:A I *D sky130_fd_sc_hd__dlygate4sd3_1
*I *1264:A1 I *D sky130_fd_sc_hd__a22o_1
*I *1496:Q O *D sky130_fd_sc_hd__dfxtp_1
*CAP
1 *1595:A 0.000248813
2 *1264:A1 2.77283e-05
3 *1496:Q 0.000155268
4 *353:6 0.000431809
5 *1595:A *1438:A1 0
6 *353:6 *1264:B2 3.11088e-05
7 *1264:A2 *1264:A1 3.11088e-05
8 *1264:A2 *353:6 3.96138e-05
9 *1366:A *1595:A 0
*RES
1 *1496:Q *353:6 11.4786 
2 *353:6 *1264:A1 10.2643 
3 *353:6 *1595:A 22.3714 
*END

*D_NET *354 0.000893351
*CONN
*I *1255:A1 I *D sky130_fd_sc_hd__a22o_1
*I *1560:A I *D sky130_fd_sc_hd__dlygate4sd3_1
*I *1497:Q O *D sky130_fd_sc_hd__dfxtp_1
*CAP
1 *1255:A1 0.000142079
2 *1560:A 1.59835e-05
3 *1497:Q 0.000144074
4 *354:6 0.000302136
5 *1228:A2 *1255:A1 0.000100074
6 *1228:A2 *354:6 0.00017421
7 *1228:B1 *1255:A1 1.4796e-05
*RES
1 *1497:Q *354:6 12.3 
2 *354:6 *1560:A 9.72857 
3 *354:6 *1255:A1 12.2107 
*END

*D_NET *355 0.00111238
*CONN
*I *1550:A I *D sky130_fd_sc_hd__dlygate4sd3_1
*I *1246:A1 I *D sky130_fd_sc_hd__a22o_1
*I *1498:Q O *D sky130_fd_sc_hd__dfxtp_1
*CAP
1 *1550:A 7.90865e-05
2 *1246:A1 0.000110477
3 *1498:Q 8.196e-05
4 *355:10 0.000271523
5 *355:10 *1369:A0 7.79937e-05
6 *355:10 *433:14 1.46624e-05
7 *1365:S *355:10 0
8 *176:87 *1246:A1 0.00026032
9 *176:87 *1550:A 0.000216354
*RES
1 *1498:Q *355:10 19.9429 
2 *355:10 *1246:A1 11.9071 
3 *355:10 *1550:A 11.4786 
*END

*D_NET *356 0.00162934
*CONN
*I *1612:A I *D sky130_fd_sc_hd__dlygate4sd3_1
*I *1237:A1 I *D sky130_fd_sc_hd__a22o_1
*I *1499:Q O *D sky130_fd_sc_hd__dfxtp_1
*CAP
1 *1612:A 4.25821e-05
2 *1237:A1 0.000236645
3 *1499:Q 0.000132904
4 *356:8 0.00041213
5 *1237:A1 *434:12 0.000259434
6 *1612:A *434:12 0.000117257
7 *1237:A2 *1237:A1 5.46383e-06
8 *172:26 *1237:A1 9.20396e-05
9 *172:26 *1612:A 6.45442e-05
10 *175:14 *1237:A1 3.11088e-05
11 *175:33 *1237:A1 5.50371e-05
12 *176:34 *356:8 0.000180195
*RES
1 *1499:Q *356:8 15.5679 
2 *356:8 *1237:A1 19.05 
3 *356:8 *1612:A 15.4429 
*END

*D_NET *357 0.000711537
*CONN
*I *1556:A I *D sky130_fd_sc_hd__dlygate4sd3_1
*I *1228:A1 I *D sky130_fd_sc_hd__a22o_1
*I *1500:Q O *D sky130_fd_sc_hd__dfxtp_1
*CAP
1 *1556:A 5.73596e-05
2 *1228:A1 0
3 *1500:Q 0.000113532
4 *357:12 0.000170891
5 *357:12 *1373:A1 5.32071e-05
6 *1228:A2 *1556:A 5.65978e-05
7 *1228:B1 *1556:A 0.000195494
8 *1229:C1 *1556:A 9.45048e-06
9 *1446:S *357:12 5.50052e-05
*RES
1 *1500:Q *357:12 20.175 
2 *357:12 *1228:A1 9.3 
3 *357:12 *1556:A 11.4964 
*END

*D_NET *358 0.00139351
*CONN
*I *1219:A1 I *D sky130_fd_sc_hd__a22o_1
*I *1547:A I *D sky130_fd_sc_hd__dlygate4sd3_1
*I *1501:Q O *D sky130_fd_sc_hd__dfxtp_1
*CAP
1 *1219:A1 0.000185011
2 *1547:A 0.000254335
3 *1501:Q 0
4 *358:6 0.000439346
5 *1547:A *1375:A0 5.4959e-05
6 *1219:A2 *1219:A1 5.33005e-05
7 *1375:S *1547:A 1.00887e-05
8 *1431:A *1219:A1 0
9 *160:97 *1219:A1 0.00018077
10 *165:90 *1219:A1 0
11 *175:63 *1219:A1 0.000108295
12 *175:63 *1547:A 6.22408e-05
13 *332:74 *1219:A1 4.51611e-05
*RES
1 *1501:Q *358:6 13.8 
2 *358:6 *1547:A 18.8536 
3 *358:6 *1219:A1 18.425 
*END

*D_NET *359 0.00310992
*CONN
*I *1568:A I *D sky130_fd_sc_hd__dlygate4sd3_1
*I *1210:A1 I *D sky130_fd_sc_hd__a22o_1
*I *1502:Q O *D sky130_fd_sc_hd__dfxtp_1
*CAP
1 *1568:A 0.000148622
2 *1210:A1 0.000677
3 *1502:Q 0
4 *359:4 0.000825622
5 *1210:A1 *1210:B2 0.000110775
6 *1210:A1 *1450:A1 0.000126755
7 *1210:A1 *1548:A 1.21258e-05
8 *1210:A1 *391:12 0.000296151
9 *1201:B1 *1210:A1 0.000185302
10 *1210:A2 *1210:A1 5.33005e-05
11 *1378:A *1210:A1 0.000131223
12 *166:76 *1210:A1 5.04735e-05
13 *166:76 *1568:A 0.000167666
14 *176:45 *1210:A1 0.000312769
15 *268:86 *1210:A1 1.21317e-05
16 *332:29 *1210:A1 0
*RES
1 *1502:Q *359:4 9.3 
2 *359:4 *1210:A1 42.4429 
3 *359:4 *1568:A 12.7286 
*END

*D_NET *360 0.00209649
*CONN
*I *1201:A1 I *D sky130_fd_sc_hd__a22o_1
*I *1578:A I *D sky130_fd_sc_hd__dlygate4sd3_1
*I *1503:Q O *D sky130_fd_sc_hd__dfxtp_1
*CAP
1 *1201:A1 0.000482282
2 *1578:A 7.99644e-05
3 *1503:Q 0.000132812
4 *360:6 0.000695059
5 *1201:A1 *488:32 0
6 *1201:A1 *488:108 0
7 *1578:A *488:51 5.52238e-05
8 *1578:A *488:108 4.78056e-05
9 *1203:B1 *1201:A1 0.000269428
10 *1203:B1 *360:6 0.00018077
11 *1344:A *1201:A1 0
12 *1527:D *1201:A1 0
13 *163:203 *1578:A 5.86416e-05
14 *167:142 *1578:A 2.27416e-05
15 *268:86 *1578:A 9.10431e-06
16 *278:31 *1201:A1 6.26559e-05
17 *332:10 *1201:A1 0
*RES
1 *1503:Q *360:6 11.0679 
2 *360:6 *1578:A 20.4786 
3 *360:6 *1201:A1 26.175 
*END

*D_NET *361 0.00221361
*CONN
*I *1597:A I *D sky130_fd_sc_hd__dlygate4sd3_1
*I *1260:A1 I *D sky130_fd_sc_hd__a22o_1
*I *1504:Q O *D sky130_fd_sc_hd__dfxtp_1
*CAP
1 *1597:A 5.0453e-05
2 *1260:A1 0.000276447
3 *1504:Q 0.000159559
4 *361:8 0.000486459
5 *1260:A1 *1347:A0 0.000132487
6 *1597:A *1347:A0 3.92854e-05
7 *1215:A2 *1260:A1 0.000136733
8 *1260:B2 *1260:A1 0.000177591
9 *1266:A2 *1260:A1 0
10 *1266:A2 *1597:A 0
11 *175:74 *1260:A1 0.000394913
12 *175:74 *1597:A 0.000118903
13 *245:102 *1260:A1 1.62025e-05
14 *345:12 *361:8 0.000224577
*RES
1 *1504:Q *361:8 15.9786 
2 *361:8 *1260:A1 20.8536 
3 *361:8 *1597:A 15.4429 
*END

*D_NET *362 0.00155309
*CONN
*I *1251:A1 I *D sky130_fd_sc_hd__a22o_1
*I *1580:A I *D sky130_fd_sc_hd__dlygate4sd3_1
*I *1505:Q O *D sky130_fd_sc_hd__dfxtp_1
*CAP
1 *1251:A1 6.33735e-05
2 *1580:A 7.65638e-05
3 *1505:Q 0.000155204
4 *362:10 0.000295141
5 *1580:A *1385:A1 5.33005e-05
6 *1580:A *422:66 0.000242957
7 *1391:S *1251:A1 8.29995e-05
8 *1391:S *362:10 5.80706e-06
9 *1455:CLK *362:10 5.23142e-05
10 *242:12 *1251:A1 0.000171437
11 *242:12 *362:10 0.00012401
12 *288:76 *362:10 6.65302e-05
13 *288:100 *1580:A 0.00016345
*RES
1 *1505:Q *362:10 16.8 
2 *362:10 *1580:A 16.8 
3 *362:10 *1251:A1 16.05 
*END

*D_NET *363 0.00148171
*CONN
*I *1565:A I *D sky130_fd_sc_hd__dlygate4sd3_1
*I *1242:A1 I *D sky130_fd_sc_hd__a22o_1
*I *1506:Q O *D sky130_fd_sc_hd__dfxtp_1
*CAP
1 *1565:A 7.86017e-05
2 *1242:A1 0.000184374
3 *1506:Q 0.000100366
4 *363:14 0.000363342
5 *1242:A1 *438:96 2.59355e-05
6 *363:14 *1387:A1 1.32293e-05
7 *1240:A1 *1242:A1 0
8 *1240:A1 *363:14 8.91963e-06
9 *1242:A2 *1242:A1 0
10 *1242:B2 *1242:A1 1.99099e-05
11 *1387:S *363:14 1.87331e-05
12 *158:135 *1242:A1 1.94945e-05
13 *167:65 *1242:A1 5.33005e-05
14 *245:85 *1565:A 0.00016867
15 *245:85 *363:14 0.000156183
16 *288:100 *363:14 3.75868e-05
17 *288:111 *363:14 1.98839e-05
18 *309:23 *1242:A1 0.000213182
*RES
1 *1506:Q *363:14 21.0143 
2 *363:14 *1242:A1 22.1214 
3 *363:14 *1565:A 11.0679 
*END

*D_NET *364 0.000922833
*CONN
*I *1554:A I *D sky130_fd_sc_hd__dlygate4sd3_1
*I *1233:A1 I *D sky130_fd_sc_hd__a22o_1
*I *1507:Q O *D sky130_fd_sc_hd__dfxtp_1
*CAP
1 *1554:A 0.000132559
2 *1233:A1 0
3 *1507:Q 0.000158569
4 *364:8 0.000291128
5 *1554:A *444:46 4.87953e-05
6 *364:8 *1233:B1 5.52302e-05
7 *1233:B2 *364:8 2.89016e-05
8 *1234:B1 *364:8 1.3701e-05
9 *158:83 *1554:A 0
10 *158:91 *1554:A 3.51442e-05
11 *167:25 *1554:A 0.000153054
12 *330:16 *364:8 5.7511e-06
*RES
1 *1507:Q *364:8 11.4964 
2 *364:8 *1233:A1 9.3 
3 *364:8 *1554:A 21.1929 
*END

*D_NET *365 0.00142411
*CONN
*I *1224:A1 I *D sky130_fd_sc_hd__a22o_1
*I *1571:A I *D sky130_fd_sc_hd__dlygate4sd3_1
*I *1508:Q O *D sky130_fd_sc_hd__dfxtp_1
*CAP
1 *1224:A1 0.000105967
2 *1571:A 0
3 *1508:Q 0.00027733
4 *365:16 0.000383297
5 *1224:A1 *438:42 5.52302e-05
6 *1224:A1 *438:75 4.38128e-05
7 *1224:A1 *455:48 1.02821e-05
8 *365:16 *438:42 0
9 *1224:B2 *1224:A1 0.00010096
10 *1224:B2 *365:16 0.00010096
11 *1458:CLK *365:16 6.8646e-06
12 *1458:D *365:16 0.000100478
13 *242:12 *365:16 0.000140454
14 *333:16 *365:16 9.84729e-05
15 *349:8 *365:16 0
*RES
1 *1508:Q *365:16 24.3893 
2 *365:16 *1571:A 9.3 
3 *365:16 *1224:A1 12.0321 
*END

*D_NET *366 0.00117275
*CONN
*I *1215:A1 I *D sky130_fd_sc_hd__a22o_1
*I *1602:A I *D sky130_fd_sc_hd__dlygate4sd3_1
*I *1509:Q O *D sky130_fd_sc_hd__dfxtp_1
*CAP
1 *1215:A1 0.000231037
2 *1602:A 0.000231981
3 *1509:Q 0
4 *366:4 0.000463018
5 *1602:A *1300:A0 2.89016e-05
6 *1215:A2 *1215:A1 2.97021e-05
7 *1221:B2 *1215:A1 8.48129e-05
8 *1258:A1 *1215:A1 1.98839e-05
9 *1301:A *1215:A1 3.69047e-06
10 *165:90 *1215:A1 2.44996e-05
11 *227:8 *1215:A1 5.52238e-05
*RES
1 *1509:Q *366:4 9.3 
2 *366:4 *1602:A 13.0321 
3 *366:4 *1215:A1 22.3893 
*END

*D_NET *367 0.00148163
*CONN
*I *1206:A1 I *D sky130_fd_sc_hd__a22o_1
*I *1593:A I *D sky130_fd_sc_hd__dlygate4sd3_1
*I *1510:Q O *D sky130_fd_sc_hd__dfxtp_1
*CAP
1 *1206:A1 0.000305068
2 *1593:A 0.000223367
3 *1510:Q 0
4 *367:4 0.000528435
5 *1206:A1 *1395:A0 0.00016885
6 *1471:D *1206:A1 6.74815e-05
7 *331:38 *1206:A1 8.66439e-05
8 *331:46 *1206:A1 3.5707e-05
9 *331:46 *1593:A 1.3701e-05
10 *331:105 *1206:A1 5.23735e-05
*RES
1 *1510:Q *367:4 9.3 
2 *367:4 *1593:A 13.0321 
3 *367:4 *1206:A1 25.4429 
*END

*D_NET *368 0.00355098
*CONN
*I *1193:A1 I *D sky130_fd_sc_hd__a22o_1
*I *1600:A I *D sky130_fd_sc_hd__dlygate4sd3_1
*I *1511:Q O *D sky130_fd_sc_hd__dfxtp_1
*CAP
1 *1193:A1 0.00056628
2 *1600:A 7.02934e-05
3 *1511:Q 0.000265338
4 *368:10 0.000901911
5 *1193:A1 *435:52 0.000695832
6 *368:10 *435:52 0.000148449
7 *1193:B1 *1193:A1 1.98839e-05
8 *1193:B2 *1193:A1 0.000183726
9 *1494:D *1193:A1 0.000148514
10 *168:38 *1193:A1 0.000132974
11 *258:14 *1193:A1 1.56e-05
12 *268:75 *1193:A1 0.000117675
13 *331:38 *1193:A1 0
14 *331:38 *368:10 0
15 *331:46 *368:10 0.000141132
16 *331:48 *368:10 0.000143375
*RES
1 *1511:Q *368:10 18.3357 
2 *368:10 *1600:A 14.7464 
3 *368:10 *1193:A1 27.2643 
*END

*D_NET *369 0.00198794
*CONN
*I *1613:A I *D sky130_fd_sc_hd__dlygate4sd3_1
*I *1262:A I *D sky130_fd_sc_hd__inv_2
*I *1512:Q O *D sky130_fd_sc_hd__dfxtp_1
*CAP
1 *1613:A 0.000226208
2 *1262:A 0.000569542
3 *1512:Q 0
4 *369:4 0.000795751
5 *1262:A *1402:A0 3.2788e-05
6 *1262:A *401:36 0.000128154
7 *1613:A *1402:A0 2.89016e-05
8 *1263:A2 *1262:A 8.00806e-05
9 *1512:D *1262:A 0.000126511
*RES
1 *1512:Q *369:4 9.3 
2 *369:4 *1262:A 26.2286 
3 *369:4 *1613:A 13.0321 
*END

*D_NET *370 0.00124127
*CONN
*I *1605:A I *D sky130_fd_sc_hd__dlygate4sd3_1
*I *1253:A I *D sky130_fd_sc_hd__inv_2
*I *1513:Q O *D sky130_fd_sc_hd__dfxtp_1
*CAP
1 *1605:A 6.04977e-05
2 *1253:A 0.000257889
3 *1513:Q 0.000149235
4 *370:10 0.000467622
5 *1253:A *373:8 2.41233e-05
6 *1253:A *422:14 8.49318e-05
7 *1605:A *422:14 0.000129868
8 *370:10 *422:30 1.3701e-05
9 *1254:A2 *1253:A 1.31431e-05
10 *1284:A *1253:A 0
11 *1284:A *1605:A 0
12 *1404:S *1253:A 0
13 *1405:A *370:10 1.72894e-05
14 *334:32 *1253:A 2.29734e-05
*RES
1 *1513:Q *370:10 16.4964 
2 *370:10 *1253:A 18.05 
3 *370:10 *1605:A 15.4429 
*END

*D_NET *371 0.000784755
*CONN
*I *1608:A I *D sky130_fd_sc_hd__dlygate4sd3_1
*I *1244:A I *D sky130_fd_sc_hd__inv_2
*I *1514:Q O *D sky130_fd_sc_hd__dfxtp_1
*CAP
1 *1608:A 0.000150278
2 *1244:A 5.51773e-05
3 *1514:Q 3.24927e-05
4 *371:6 0.000237948
5 *1265:A2 *1608:A 9.90431e-05
6 *1520:CLK *1244:A 1.97695e-05
7 *176:77 *1608:A 4.71964e-05
8 *319:78 *1608:A 0
9 *336:133 *371:6 0.00014285
*RES
1 *1514:Q *371:6 10.6571 
2 *371:6 *1244:A 10.5679 
3 *371:6 *1608:A 21.1929 
*END

*D_NET *372 0.000456144
*CONN
*I *1603:A I *D sky130_fd_sc_hd__dlygate4sd3_1
*I *1235:A I *D sky130_fd_sc_hd__inv_2
*I *1515:Q O *D sky130_fd_sc_hd__dfxtp_1
*CAP
1 *1603:A 5.51816e-05
2 *1235:A 2.13113e-05
3 *1515:Q 8.75423e-05
4 *372:12 0.000164035
5 *372:12 *1408:A0 0
6 *1236:A2 *1603:A 0.000100165
7 *1336:A *372:12 2.79092e-05
8 *1409:A *372:12 0
*RES
1 *1515:Q *372:12 20.0679 
2 *372:12 *1235:A 9.72857 
3 *372:12 *1603:A 10.6571 
*END

*D_NET *373 0.000982065
*CONN
*I *1226:A I *D sky130_fd_sc_hd__inv_2
*I *1598:A I *D sky130_fd_sc_hd__dlygate4sd3_1
*I *1516:Q O *D sky130_fd_sc_hd__dfxtp_1
*CAP
1 *1226:A 2.9254e-05
2 *1598:A 0.000150508
3 *1516:Q 0.000126426
4 *373:8 0.000306188
5 *1253:A *373:8 2.41233e-05
6 *1254:A2 *373:8 9.90367e-05
7 *1284:A *1226:A 0
8 *1284:A *1598:A 0
9 *1404:S *1226:A 2.84494e-05
10 *1404:S *1598:A 6.05445e-05
11 *1410:S *1598:A 9.90367e-05
12 *299:46 *1598:A 5.33005e-05
13 *334:32 *373:8 5.19842e-06
*RES
1 *1516:Q *373:8 15.5679 
2 *373:8 *1598:A 16.8 
3 *373:8 *1226:A 14.5321 
*END

*D_NET *374 0.00109442
*CONN
*I *1604:A I *D sky130_fd_sc_hd__dlygate4sd3_1
*I *1217:A I *D sky130_fd_sc_hd__inv_2
*I *1517:Q O *D sky130_fd_sc_hd__dfxtp_1
*CAP
1 *1604:A 0.000304951
2 *1217:A 0.000171213
3 *1517:Q 0
4 *374:4 0.000476164
5 *1217:A *1412:A0 2.74642e-05
6 *1604:A *1412:A0 1.32552e-05
7 *1218:A2 *1217:A 0.00010137
*RES
1 *1517:Q *374:4 9.3 
2 *374:4 *1217:A 21.1929 
3 *374:4 *1604:A 13.0321 
*END

*D_NET *375 0.00157154
*CONN
*I *1208:A I *D sky130_fd_sc_hd__inv_2
*I *1609:A I *D sky130_fd_sc_hd__dlygate4sd3_1
*I *1518:Q O *D sky130_fd_sc_hd__dfxtp_1
*CAP
1 *1208:A 0.000349348
2 *1609:A 0.000139028
3 *1518:Q 0
4 *375:6 0.000488376
5 *1208:A *1270:A2 5.66971e-05
6 *1208:A *1270:B1 6.50185e-05
7 *1208:A *1646:A 6.44649e-05
8 *1208:A *413:12 9.58689e-05
9 *1208:A *431:18 1.90936e-05
10 *1609:A *1646:A 0.000107104
11 *1415:A *1208:A 4.48542e-05
12 *1415:A *1609:A 0.000104967
13 *1463:D *1208:A 3.67252e-05
*RES
1 *1518:Q *375:6 13.8 
2 *375:6 *1609:A 17.6214 
3 *375:6 *1208:A 20.925 
*END

*D_NET *376 0.00151658
*CONN
*I *1197:A I *D sky130_fd_sc_hd__inv_2
*I *1611:A I *D sky130_fd_sc_hd__dlygate4sd3_1
*I *1519:Q O *D sky130_fd_sc_hd__dfxtp_1
*CAP
1 *1197:A 0.000461144
2 *1611:A 0.000115246
3 *1519:Q 0
4 *376:6 0.000576391
5 *1197:A *1646:A 4.57445e-05
6 *1197:A *413:12 6.1684e-05
7 *1611:A *1646:A 8.902e-05
8 *1611:A *413:12 0.000140311
9 underrun *1611:A 2.09897e-05
10 *1198:A1 *1197:A 6.05161e-06
*RES
1 *1519:Q *376:6 13.8 
2 *376:6 *1611:A 17.4964 
3 *376:6 *1197:A 21.3179 
*END

*D_NET *377 0.00105096
*CONN
*I *1576:A I *D sky130_fd_sc_hd__dlygate4sd3_1
*I *1265:A1 I *D sky130_fd_sc_hd__a211o_1
*I *1520:Q O *D sky130_fd_sc_hd__dfxtp_1
*CAP
1 *1576:A 0.000115549
2 *1265:A1 0.000156866
3 *1520:Q 0.000135968
4 *377:10 0.000408383
5 *377:10 *1420:A0 5.24274e-05
6 *1263:A2 *377:10 0
7 *1265:A2 *1265:A1 2.97137e-05
8 *1265:B1 *1265:A1 1.04232e-05
9 *1265:B1 *377:10 0
10 *1265:C1 *1265:A1 2.30392e-05
11 *1266:B2 *1265:A1 5.41494e-05
12 *1266:B2 *1576:A 6.4443e-05
13 *1266:B2 *377:10 0
14 *1403:A *377:10 0
15 *1421:A *377:10 0
16 *1512:D *1576:A 0
*RES
1 *1520:Q *377:10 20.8536 
2 *377:10 *1265:A1 12.3179 
3 *377:10 *1576:A 11.4964 
*END

*D_NET *378 0.00203885
*CONN
*I *1256:A1 I *D sky130_fd_sc_hd__a211o_1
*I *1559:A I *D sky130_fd_sc_hd__dlygate4sd3_1
*I *1521:Q O *D sky130_fd_sc_hd__dfxtp_1
*CAP
1 *1256:A1 0.000156789
2 *1559:A 0
3 *1521:Q 0.000393091
4 *378:14 0.000549881
5 *378:14 *1422:A0 0.000144787
6 *1227:A1 *378:14 0.000204704
7 *1229:A2 *1256:A1 6.92232e-05
8 *1229:A2 *378:14 0.000228514
9 *1254:A1 *378:14 4.15183e-05
10 *1256:A2 *1256:A1 1.04232e-05
11 *1257:B2 *378:14 0
12 *1428:S *378:14 3.25078e-05
13 *172:110 *1256:A1 2.27416e-05
14 *299:46 *378:14 0.000184669
*RES
1 *1521:Q *378:14 26.3179 
2 *378:14 *1559:A 9.3 
3 *378:14 *1256:A1 12.6393 
*END

*D_NET *379 0.0026439
*CONN
*I *1582:A I *D sky130_fd_sc_hd__dlygate4sd3_1
*I *1247:A1 I *D sky130_fd_sc_hd__a211o_1
*I *1522:Q O *D sky130_fd_sc_hd__dfxtp_1
*CAP
1 *1582:A 0.000701282
2 *1247:A1 0.000191704
3 *1522:Q 0.000124854
4 *379:6 0.00101784
5 *1247:A1 *433:18 0.00012798
6 *1247:A1 *433:20 9.08727e-05
7 *1247:A1 *434:12 0.000210154
8 *1265:A2 *1582:A 5.70296e-05
9 *1265:A2 *379:6 1.13406e-05
10 *1522:CLK *1582:A 9.17062e-05
11 *1522:D *1582:A 7.99677e-06
12 *172:98 *1247:A1 8.6229e-06
13 *172:110 *379:6 2.51343e-06
*RES
1 *1522:Q *379:6 10.6571 
2 *379:6 *1247:A1 23.8893 
3 *379:6 *1582:A 17.9607 
*END

*D_NET *380 0.000979899
*CONN
*I *1585:A I *D sky130_fd_sc_hd__dlygate4sd3_1
*I *1238:A1 I *D sky130_fd_sc_hd__a211o_1
*I *1523:Q O *D sky130_fd_sc_hd__dfxtp_1
*CAP
1 *1585:A 9.0782e-05
2 *1238:A1 5.18266e-05
3 *1523:Q 0.000172672
4 *380:6 0.000315281
5 *1238:B1 *1238:A1 0.000173812
6 *172:26 *1238:A1 0.000175526
*RES
1 *1523:Q *380:6 11.4786 
2 *380:6 *1238:A1 20.55 
3 *380:6 *1585:A 10.675 
*END

*D_NET *381 0.00149687
*CONN
*I *1601:A I *D sky130_fd_sc_hd__dlygate4sd3_1
*I *1229:A1 I *D sky130_fd_sc_hd__a211o_1
*I *1524:Q O *D sky130_fd_sc_hd__dfxtp_1
*CAP
1 *1601:A 5.71052e-05
2 *1229:A1 9.57715e-05
3 *1524:Q 0.000124159
4 *381:12 0.000277035
5 *381:12 *1428:A0 3.92854e-05
6 *381:12 *422:30 9.90431e-05
7 *381:12 *455:78 1.46624e-05
8 *1227:B1 *381:12 0.00012401
9 *1229:A2 *1229:A1 0.000301184
10 *1229:A2 *1601:A 0.000170161
11 *1229:B1 *1229:A1 4.71157e-05
12 *1229:B1 *1601:A 4.82947e-05
13 *1229:C1 *1229:A1 9.90431e-05
*RES
1 *1524:Q *381:12 20.8893 
2 *381:12 *1229:A1 12.3179 
3 *381:12 *1601:A 11.0679 
*END

*D_NET *382 0.0016767
*CONN
*I *1562:A I *D sky130_fd_sc_hd__dlygate4sd3_1
*I *1220:A1 I *D sky130_fd_sc_hd__a211o_1
*I *1525:Q O *D sky130_fd_sc_hd__dfxtp_1
*CAP
1 *1562:A 0.000150554
2 *1220:A1 0.000110606
3 *1525:Q 4.24076e-05
4 *382:10 0.000303567
5 *1220:A1 *425:22 0.000259542
6 *1562:A *425:22 0.00038379
7 *160:150 *382:10 0.000125724
8 *166:120 *1220:A1 2.42516e-05
9 *166:120 *1562:A 1.58163e-05
10 *166:120 *382:10 0.000125724
11 *172:53 *1220:A1 3.57366e-05
12 *172:66 *1220:A1 9.89764e-05
*RES
1 *1525:Q *382:10 19.9429 
2 *382:10 *1220:A1 12.3179 
3 *382:10 *1562:A 13.1214 
*END

*D_NET *383 0.00115687
*CONN
*I *1211:A1 I *D sky130_fd_sc_hd__a211o_1
*I *1579:A I *D sky130_fd_sc_hd__dlygate4sd3_1
*I *1526:Q O *D sky130_fd_sc_hd__dfxtp_1
*CAP
1 *1211:A1 0.000100955
2 *1579:A 0.000192992
3 *1526:Q 0
4 *383:4 0.000293947
5 *1211:A1 *1432:A0 9.19138e-05
6 *1211:C1 *1211:A1 2.83485e-05
7 *165:139 *1211:A1 4.49856e-05
8 *165:139 *1579:A 4.82354e-05
9 *166:120 *1211:A1 0.000170372
10 *299:135 *1579:A 0.000185118
*RES
1 *1526:Q *383:4 9.3 
2 *383:4 *1579:A 13.1393 
3 *383:4 *1211:A1 21.3536 
*END

*D_NET *384 0.00112951
*CONN
*I *1563:A I *D sky130_fd_sc_hd__dlygate4sd3_1
*I *1202:A1 I *D sky130_fd_sc_hd__a211o_1
*I *1527:Q O *D sky130_fd_sc_hd__dfxtp_1
*CAP
1 *1563:A 0.000104068
2 *1202:A1 0.000174966
3 *1527:Q 4.52373e-05
4 *384:10 0.000324271
5 *384:10 *1434:A0 2.79092e-05
6 *1202:A2 *1202:A1 0.000229456
7 *1202:B1 *1202:A1 5.16637e-05
8 *1202:B1 *1563:A 6.86792e-05
9 *1434:S *384:10 0
10 *166:78 *384:10 0.00010326
*RES
1 *1527:Q *384:10 19.6393 
2 *384:10 *1202:A1 12.7286 
3 *384:10 *1563:A 11.0857 
*END

*D_NET *385 0.00211542
*CONN
*I *1575:A I *D sky130_fd_sc_hd__dlygate4sd3_1
*I *1264:B2 I *D sky130_fd_sc_hd__a22o_1
*I *1528:Q O *D sky130_fd_sc_hd__dfxtp_1
*CAP
1 *1575:A 0.000270796
2 *1264:B2 0.000255472
3 *1528:Q 0
4 *385:4 0.000526268
5 *1575:A *1438:A0 0.000226272
6 *1264:A2 *1264:B2 5.66971e-05
7 *1438:S *1575:A 0.00035577
8 *1496:D *1575:A 0.000210696
9 *319:78 *1264:B2 6.73707e-06
10 *319:84 *1264:B2 0.000115688
11 *319:84 *1575:A 5.99191e-05
12 *353:6 *1264:B2 3.11088e-05
*RES
1 *1528:Q *385:4 9.3 
2 *385:4 *1264:B2 23.3536 
3 *385:4 *1575:A 17.1393 
*END

*D_NET *386 0.00278764
*CONN
*I *1255:B2 I *D sky130_fd_sc_hd__a22o_1
*I *1555:A I *D sky130_fd_sc_hd__dlygate4sd3_1
*I *1529:Q O *D sky130_fd_sc_hd__dfxtp_1
*CAP
1 *1255:B2 0.00045159
2 *1555:A 0
3 *1529:Q 0.000164728
4 *386:12 0.000616318
5 *1255:B2 *1586:A 0.000171023
6 *1255:B2 *425:67 0.000580978
7 *1255:B2 *433:14 0
8 *1255:B2 *434:12 0.000107527
9 *386:12 *1440:A0 0
10 *386:12 *1586:A 8.42086e-05
11 *386:12 *425:67 0.000230482
12 *1443:A *1255:B2 5.52302e-05
13 *1498:D *1255:B2 6.87582e-05
14 *1530:CLK *1255:B2 0.000197173
15 *1530:D *1255:B2 5.96223e-05
*RES
1 *1529:Q *386:12 22.425 
2 *386:12 *1555:A 9.3 
3 *386:12 *1255:B2 31.175 
*END

*D_NET *387 0.00193065
*CONN
*I *1586:A I *D sky130_fd_sc_hd__dlygate4sd3_1
*I *1246:B2 I *D sky130_fd_sc_hd__a22o_1
*I *1530:Q O *D sky130_fd_sc_hd__dfxtp_1
*CAP
1 *1586:A 0.000277914
2 *1246:B2 0.000516444
3 *1530:Q 0
4 *387:4 0.000794359
5 *1586:A *1442:A0 2.79092e-05
6 *1255:B2 *1586:A 0.000171023
7 *1530:CLK *1246:B2 3.17016e-05
8 *1530:D *1246:B2 2.13202e-05
9 *176:87 *1246:B2 5.7661e-06
10 *386:12 *1586:A 8.42086e-05
*RES
1 *1530:Q *387:4 9.3 
2 *387:4 *1246:B2 17.2643 
3 *387:4 *1586:A 24.0143 
*END

*D_NET *388 0.000969998
*CONN
*I *1237:B2 I *D sky130_fd_sc_hd__a22o_1
*I *1619:A I *D sky130_fd_sc_hd__dlygate4sd3_1
*I *1531:Q O *D sky130_fd_sc_hd__dfxtp_1
*CAP
1 *1237:B2 2.79726e-05
2 *1619:A 0
3 *1531:Q 0.000138789
4 *388:8 0.000166762
5 *175:14 *1237:B2 9.41642e-05
6 *175:14 *388:8 0.000318648
7 *176:24 *1237:B2 8.17274e-05
8 *176:24 *388:8 0.000141935
*RES
1 *1531:Q *388:8 13.0321 
2 *388:8 *1619:A 9.3 
3 *388:8 *1237:B2 10.2464 
*END

*D_NET *389 0.0018325
*CONN
*I *1561:A I *D sky130_fd_sc_hd__dlygate4sd3_1
*I *1228:B2 I *D sky130_fd_sc_hd__a22o_1
*I *1532:Q O *D sky130_fd_sc_hd__dfxtp_1
*CAP
1 *1561:A 4.02745e-05
2 *1228:B2 0.000135517
3 *1532:Q 0.000368233
4 *389:8 0.000544024
5 *1228:B2 *1446:A1 2.85234e-05
6 *1228:B2 *425:55 6.20004e-05
7 *1228:B2 *437:122 0.000195119
8 *1561:A *425:55 6.24636e-05
9 *1561:A *437:122 0.000127781
10 *1228:B1 *1228:B2 2.04681e-05
11 *1446:S *1228:B2 7.89362e-05
12 *334:95 *389:8 2.11336e-05
13 *334:104 *389:8 0.000148022
*RES
1 *1532:Q *389:8 18.4429 
2 *389:8 *1228:B2 17.6214 
3 *389:8 *1561:A 15.4429 
*END

*D_NET *390 0.00148345
*CONN
*I *1219:B2 I *D sky130_fd_sc_hd__a22o_1
*I *1553:A I *D sky130_fd_sc_hd__dlygate4sd3_1
*I *1533:Q O *D sky130_fd_sc_hd__dfxtp_1
*CAP
1 *1219:B2 0.000138573
2 *1553:A 4.87215e-05
3 *1533:Q 0.00015549
4 *390:12 0.000342785
5 *1553:A *1357:A0 3.08664e-05
6 *1533:CLK *390:12 5.65955e-05
7 *1572:A *1219:B2 5.52238e-05
8 *160:97 *1219:B2 0.000196374
9 *160:97 *1553:A 0.000113136
10 *268:86 *390:12 0.000148903
11 *332:46 *390:12 5.68722e-05
12 *332:74 *1219:B2 0.000139913
*RES
1 *1533:Q *390:12 21.1929 
2 *390:12 *1553:A 10.6571 
3 *390:12 *1219:B2 12.7286 
*END

*D_NET *391 0.00278713
*CONN
*I *1548:A I *D sky130_fd_sc_hd__dlygate4sd3_1
*I *1210:B2 I *D sky130_fd_sc_hd__a22o_1
*I *1534:Q O *D sky130_fd_sc_hd__dfxtp_1
*CAP
1 *1548:A 0.000200902
2 *1210:B2 0.00017893
3 *1534:Q 0.000275276
4 *391:12 0.000655109
5 *1548:A *1450:A0 0.000110535
6 *1210:A1 *1210:B2 0.000110775
7 *1210:A1 *1548:A 1.21258e-05
8 *1210:A1 *391:12 0.000296151
9 *1210:A2 *1210:B2 5.49544e-05
10 *1211:C1 *1210:B2 3.88131e-05
11 *1211:C1 *1548:A 0.00056093
12 *1451:A *1210:B2 9.58181e-05
13 *1526:CLK *1548:A 9.31523e-05
14 *175:33 *391:12 3.11997e-05
15 *176:34 *1210:B2 5.45307e-05
16 *176:45 *1210:B2 1.10868e-05
17 *176:45 *1548:A 6.8445e-06
*RES
1 *1534:Q *391:12 22.1214 
2 *391:12 *1210:B2 13.55 
3 *391:12 *1548:A 15.6214 
*END

*D_NET *392 0.00148102
*CONN
*I *1201:B2 I *D sky130_fd_sc_hd__a22o_1
*I *1558:A I *D sky130_fd_sc_hd__dlygate4sd3_1
*I *1535:Q O *D sky130_fd_sc_hd__dfxtp_1
*CAP
1 *1201:B2 9.50587e-05
2 *1558:A 0
3 *1535:Q 0.000392842
4 *392:8 0.000487901
5 *392:8 *1379:A1 8.25843e-06
6 *1201:B1 *1201:B2 1.3701e-05
7 *1201:B1 *392:8 0
8 *1453:A *392:8 3.08664e-05
9 *319:27 *392:8 0.000182598
10 *319:38 *392:8 0.000269795
*RES
1 *1535:Q *392:8 16.425 
2 *392:8 *1558:A 9.3 
3 *392:8 *1201:B2 11.0857 
*END

*D_NET *393 0.00227895
*CONN
*I *1261:A1 I *D sky130_fd_sc_hd__a21o_1
*I *1569:A I *D sky130_fd_sc_hd__dlygate4sd3_1
*I *1454:Q O *D sky130_fd_sc_hd__dfxtp_1
*CAP
1 *1261:A1 0.000145029
2 *1569:A 0
3 *1454:Q 0.000531552
4 *393:14 0.000676582
5 *393:14 *401:56 7.89623e-06
6 *393:14 *401:76 6.13757e-06
7 *1261:A2 *1261:A1 7.8442e-05
8 *1261:B1 *1261:A1 0.000305015
9 *1261:B1 *393:14 7.83659e-05
10 *1480:CLK *1261:A1 0.000249938
11 *1480:CLK *393:14 1.21371e-05
12 *160:150 *393:14 7.83659e-05
13 *335:110 *393:14 0.000109492
*RES
1 *1454:Q *393:14 25.1214 
2 *393:14 *1569:A 9.3 
3 *393:14 *1261:A1 13.675 
*END

*D_NET *394 0.00168357
*CONN
*I *1588:A I *D sky130_fd_sc_hd__dlygate4sd3_1
*I *1252:A1 I *D sky130_fd_sc_hd__a21o_1
*I *1455:Q O *D sky130_fd_sc_hd__dfxtp_1
*CAP
1 *1588:A 0.000238869
2 *1252:A1 0.000494026
3 *1455:Q 0
4 *394:4 0.000732895
5 *142:132 *1252:A1 0
6 *158:91 *1252:A1 0.000149911
7 *158:102 *1252:A1 1.02504e-05
8 *288:100 *1252:A1 5.7616e-05
*RES
1 *1455:Q *394:4 9.3 
2 *394:4 *1252:A1 24.8893 
3 *394:4 *1588:A 13.0321 
*END

*D_NET *395 0.00221836
*CONN
*I *1551:A I *D sky130_fd_sc_hd__dlygate4sd3_1
*I *1243:A1 I *D sky130_fd_sc_hd__a21o_1
*I *1456:Q O *D sky130_fd_sc_hd__dfxtp_1
*CAP
1 *1551:A 0.00017899
2 *1243:A1 0.000399521
3 *1456:Q 0
4 *395:4 0.00057851
5 *1243:A1 *434:12 0.000257133
6 *1551:A *1294:A0 5.49544e-05
7 *1551:A *438:96 0.00014236
8 *1456:D *1243:A1 3.06035e-05
9 *1545:A *1243:A1 0.000260842
10 *245:102 *1551:A 0.000315451
*RES
1 *1456:Q *395:4 9.3 
2 *395:4 *1243:A1 25.175 
3 *395:4 *1551:A 22.9429 
*END

*D_NET *396 0.000915974
*CONN
*I *1234:A1 I *D sky130_fd_sc_hd__a21o_1
*I *1620:A I *D sky130_fd_sc_hd__dlygate4sd3_1
*I *1457:Q O *D sky130_fd_sc_hd__dfxtp_1
*CAP
1 *1234:A1 4.59234e-05
2 *1620:A 0
3 *1457:Q 7.22342e-05
4 *396:8 0.000118158
5 *1234:A2 *1234:A1 0.000100685
6 *1234:A2 *396:8 0.000165497
7 *1234:B1 *1234:A1 2.68502e-05
8 *1249:A1 *1234:A1 7.00641e-05
9 *1249:A1 *396:8 0.000316562
*RES
1 *1457:Q *396:8 12.7286 
2 *396:8 *1620:A 9.3 
3 *396:8 *1234:A1 11.0857 
*END

*D_NET *397 0.000716706
*CONN
*I *1552:A I *D sky130_fd_sc_hd__dlygate4sd3_1
*I *1225:A1 I *D sky130_fd_sc_hd__a21o_1
*I *1458:Q O *D sky130_fd_sc_hd__dfxtp_1
*CAP
1 *1552:A 6.59002e-05
2 *1225:A1 0.000233883
3 *1458:Q 0
4 *397:4 0.000299783
5 *1225:A1 *438:42 3.9733e-05
6 *167:38 *1225:A1 7.74068e-05
*RES
1 *1458:Q *397:4 9.3 
2 *397:4 *1225:A1 21.5143 
3 *397:4 *1552:A 10.5679 
*END

*D_NET *398 0.00124971
*CONN
*I *1216:A1 I *D sky130_fd_sc_hd__a21o_1
*I *1570:A I *D sky130_fd_sc_hd__dlygate4sd3_1
*I *1459:Q O *D sky130_fd_sc_hd__dfxtp_1
*CAP
1 *1216:A1 0.000155186
2 *1570:A 0.000329647
3 *1459:Q 0
4 *398:4 0.000484833
5 *1216:B1 *1570:A 2.97386e-05
6 *1221:A1 *1216:A1 0.000225995
7 *1259:A *1570:A 2.4314e-05
8 *299:109 *1570:A 0
*RES
1 *1459:Q *398:4 9.3 
2 *398:4 *1570:A 23.7286 
3 *398:4 *1216:A1 11.4786 
*END

*D_NET *399 0.00342854
*CONN
*I *1589:A I *D sky130_fd_sc_hd__dlygate4sd3_1
*I *1207:A1 I *D sky130_fd_sc_hd__a21o_1
*I *1460:Q O *D sky130_fd_sc_hd__dfxtp_1
*CAP
1 *1589:A 0.000813142
2 *1207:A1 0.00036176
3 *1460:Q 0
4 *399:4 0.0011749
5 *1589:A *477:12 6.45442e-05
6 *1213:S *1589:A 3.32573e-06
7 *1302:S *1207:A1 0.000386896
8 *1303:A *1207:A1 0.000443612
9 *331:114 *1207:A1 8.49779e-05
10 *331:114 *1589:A 2.57017e-05
11 *331:133 *1589:A 6.96806e-05
*RES
1 *1460:Q *399:4 9.3 
2 *399:4 *1207:A1 26.7821 
3 *399:4 *1589:A 28.2821 
*END

*D_NET *400 0.00231633
*CONN
*I *1194:A1 I *D sky130_fd_sc_hd__a21o_1
*I *1591:A I *D sky130_fd_sc_hd__dlygate4sd3_1
*I *1461:Q O *D sky130_fd_sc_hd__dfxtp_1
*CAP
1 *1194:A1 0.000400461
2 *1591:A 0.000104541
3 *1461:Q 0.000201726
4 *400:10 0.000706728
5 *1194:A1 *1361:A1 2.04825e-05
6 *1194:A1 *488:61 1.27625e-05
7 *1194:A1 *488:82 0.000186655
8 *1591:A *1304:A0 2.85321e-05
9 *1591:A *488:82 1.60322e-05
10 *400:10 *413:30 0.000100115
11 *400:10 *488:82 1.6806e-05
12 *1194:B1 *1194:A1 0.000148189
13 *1207:A2 *1194:A1 5.49489e-05
14 *1302:S *1591:A 0.000311206
15 *1362:A *1194:A1 0
16 *1503:CLK *1194:A1 0
17 *1540:A *1194:A1 0
18 *167:142 *1194:A1 7.14196e-06
*RES
1 *1461:Q *400:10 16.6929 
2 *400:10 *1591:A 16.8 
3 *400:10 *1194:A1 21.7464 
*END

*D_NET *401 0.0142845
*CONN
*I *1402:A1 I *D sky130_fd_sc_hd__mux2_1
*I *1420:A1 I *D sky130_fd_sc_hd__mux2_1
*I *1329:A1 I *D sky130_fd_sc_hd__mux2_1
*I *1290:A1 I *D sky130_fd_sc_hd__mux2_1
*I *1383:A0 I *D sky130_fd_sc_hd__mux2_1
*I *1347:A1 I *D sky130_fd_sc_hd__mux2_1
*I *1438:A1 I *D sky130_fd_sc_hd__mux2_1
*I *1365:A1 I *D sky130_fd_sc_hd__mux2_1
*I *1621:X O *D sky130_fd_sc_hd__clkbuf_2
*CAP
1 *1402:A1 0
2 *1420:A1 0
3 *1329:A1 0.000665738
4 *1290:A1 5.93571e-05
5 *1383:A0 0.000345992
6 *1347:A1 0
7 *1438:A1 0.000252067
8 *1365:A1 0.000246034
9 *1621:X 0.000477285
10 *401:76 0.00094531
11 *401:56 0.000630161
12 *401:54 0.000867292
13 *401:44 0.000862389
14 *401:36 0.00123006
15 *401:8 0.001172
16 *401:6 0.00188176
17 *1329:A1 *1329:A0 5.60962e-05
18 *1365:A1 *1638:A 2.56601e-05
19 *1365:A1 *433:14 0.000316184
20 *1383:A0 *1347:A0 5.33005e-05
21 *1383:A0 *1383:A1 9.58689e-05
22 *1438:A1 *1638:A 0
23 *401:6 *1643:A 0.000219719
24 *401:8 *1643:A 0.000188325
25 *401:8 *433:14 0.000493359
26 *401:44 *1420:A0 9.90431e-05
27 *401:56 *1347:A0 6.62144e-05
28 *1245:B1 *401:44 0.000184745
29 *1260:B2 *401:54 0.000313061
30 *1262:A *401:36 0.000128154
31 *1263:A2 *401:36 6.14499e-05
32 *1266:A2 *401:54 0.000455858
33 *1266:B2 *401:36 0
34 *1266:B2 *401:44 0
35 *1329:S *1329:A1 8.34469e-05
36 *1347:S *1383:A0 5.74499e-06
37 *1348:A *1383:A0 0.000111594
38 *1402:S *401:36 1.00332e-05
39 *1402:S *401:44 0.00013564
40 *1439:A *1438:A1 0
41 *1454:D *1329:A1 0.000112215
42 *1512:CLK *401:36 0.000100831
43 *1567:A *401:54 0.000119618
44 *1595:A *1438:A1 0
45 *1621:A *401:6 5.62995e-05
46 *1625:A *401:8 4.88637e-05
47 *160:150 *401:44 0
48 *165:90 *1290:A1 0.000144132
49 *165:90 *401:54 0
50 *167:84 *1383:A0 4.70078e-05
51 *175:74 *401:54 0
52 *176:87 *1438:A1 0.000192848
53 *258:110 *1329:A1 0.000351157
54 *309:37 *401:54 1.85762e-05
55 *309:54 *1290:A1 0.000144132
56 *309:54 *401:44 1.21258e-05
57 *335:110 *1329:A1 9.41532e-05
58 *335:110 *401:76 8.95645e-05
59 *393:14 *401:56 7.89623e-06
60 *393:14 *401:76 6.13757e-06
*RES
1 *1621:X *401:6 15.9964 
2 *401:6 *401:8 9.98214 
3 *401:8 *1365:A1 22.3357 
4 *401:8 *1438:A1 23.2821 
5 *401:6 *401:36 18.2857 
6 *401:36 *401:44 13.1607 
7 *401:44 *401:54 18.2857 
8 *401:54 *401:56 3.41071 
9 *401:56 *1347:A1 9.3 
10 *401:56 *1383:A0 14.925 
11 *401:54 *401:76 2.58929 
12 *401:76 *1290:A1 20.2464 
13 *401:76 *1329:A1 18.05 
14 *401:44 *1420:A1 9.3 
15 *401:36 *1402:A1 13.8 
*END

*D_NET *402 0.00173163
*CONN
*I *1306:A I *D sky130_fd_sc_hd__inv_2
*I *1288:A I *D sky130_fd_sc_hd__buf_4
*I *1622:X O *D sky130_fd_sc_hd__buf_1
*CAP
1 *1306:A 0.000331347
2 *1288:A 9.24033e-05
3 *1622:X 0.000249656
4 *402:6 0.000673407
5 *1288:A *1272:A1 0
6 *1306:A *1645:A 7.08461e-05
7 *402:6 *1645:A 0.000102612
8 *1170:A *1288:A 1.02504e-05
9 *1170:B *1306:A 5.65955e-05
10 *1321:A *1306:A 3.50166e-05
11 *1322:A *1288:A 3.27526e-05
12 *1476:RESET_B *1306:A 2.41665e-05
13 *288:36 *1306:A 5.25774e-05
*RES
1 *1622:X *402:6 12.7107 
2 *402:6 *1288:A 20.2464 
3 *402:6 *1306:A 23.9071 
*END

*D_NET *403 0.000948127
*CONN
*I *1406:A0 I *D sky130_fd_sc_hd__mux2_1
*I *1608:X O *D sky130_fd_sc_hd__dlygate4sd3_1
*CAP
1 *1406:A0 0.000218393
2 *1608:X 0.000218393
3 *1406:A0 *1638:A 0.000147833
4 *1265:A2 *1406:A0 0.000136958
5 *1407:A *1406:A0 8.88163e-05
6 *319:78 *1406:A0 5.93671e-05
7 *336:70 *1406:A0 7.83659e-05
*RES
1 *1608:X *1406:A0 32.4214 
*END

*D_NET *404 0.000411071
*CONN
*I *1414:A0 I *D sky130_fd_sc_hd__mux2_1
*I *1609:X O *D sky130_fd_sc_hd__dlygate4sd3_1
*CAP
1 *1414:A0 9.41685e-05
2 *1609:X 9.41685e-05
3 *1414:A0 *477:66 5.49489e-05
4 *1415:A *1414:A0 3.11088e-05
5 *1416:S *1414:A0 0.000136676
*RES
1 *1609:X *1414:A0 20.7786 
*END

*D_NET *405 0.000487023
*CONN
*I *1204:A0 I *D sky130_fd_sc_hd__mux2_1
*I *1610:X O *D sky130_fd_sc_hd__dlygate4sd3_1
*CAP
1 *1204:A0 4.47719e-05
2 *1610:X 4.47719e-05
3 *1204:A0 *413:30 6.97409e-05
4 *1204:S *1204:A0 5.62995e-05
5 *1213:S *1204:A0 0.000271439
*RES
1 *1610:X *1204:A0 21.1893 
*END

*D_NET *406 0.000487352
*CONN
*I *1416:A0 I *D sky130_fd_sc_hd__mux2_1
*I *1611:X O *D sky130_fd_sc_hd__dlygate4sd3_1
*CAP
1 *1416:A0 0.000180055
2 *1611:X 0.000180055
3 *1416:A0 *1416:A1 5.60962e-05
4 *1416:S *1416:A0 7.11463e-05
*RES
1 *1611:X *1416:A0 21.6 
*END

*D_NET *407 0.00134775
*CONN
*I *1402:A0 I *D sky130_fd_sc_hd__mux2_1
*I *1613:X O *D sky130_fd_sc_hd__dlygate4sd3_1
*CAP
1 *1402:A0 0.000558245
2 *1613:X 0.000558245
3 *1262:A *1402:A0 3.2788e-05
4 *1464:CLK *1402:A0 9.38399e-05
5 *1464:D *1402:A0 7.57312e-05
6 *1613:A *1402:A0 2.89016e-05
*RES
1 *1613:X *1402:A0 36.975 
*END

*D_NET *408 0.00113034
*CONN
*I *1213:A0 I *D sky130_fd_sc_hd__mux2_1
*I *1614:X O *D sky130_fd_sc_hd__dlygate4sd3_1
*CAP
1 *1213:A0 0.000229195
2 *1614:X 0.000229195
3 *1213:A0 *1302:A0 0.000182677
4 *1213:A0 *413:12 0.000110682
5 *1213:A0 *413:30 5.66971e-05
6 *1213:S *1213:A0 9.83388e-05
7 *1470:RESET_B *1213:A0 0.000103437
8 *254:129 *1213:A0 0.00012012
*RES
1 *1614:X *1213:A0 34.2786 
*END

*D_NET *409 0.000860898
*CONN
*I *1222:A0 I *D sky130_fd_sc_hd__mux2_1
*I *1615:X O *D sky130_fd_sc_hd__dlygate4sd3_1
*CAP
1 *1222:A0 0.000123929
2 *1615:X 0.000123929
3 *1222:A0 *1615:A 0.000147603
4 *163:45 *1222:A0 9.41642e-05
5 *254:46 *1222:A0 0.000147603
6 *333:20 *1222:A0 0.00022367
*RES
1 *1615:X *1222:A0 31.725 
*END

*D_NET *410 0.000644881
*CONN
*I *1267:A0 I *D sky130_fd_sc_hd__mux2_1
*I *1616:X O *D sky130_fd_sc_hd__dlygate4sd3_1
*CAP
1 *1267:A0 0.000210073
2 *1616:X 0.000210073
3 *1266:A1 *1267:A0 5.58416e-05
4 *1267:A1 *1267:A0 0.000123728
5 *254:109 *1267:A0 4.51667e-05
6 *254:113 *1267:A0 0
*RES
1 *1616:X *1267:A0 31.3143 
*END

*D_NET *411 0.000249984
*CONN
*I *1231:A0 I *D sky130_fd_sc_hd__mux2_1
*I *1617:X O *D sky130_fd_sc_hd__dlygate4sd3_1
*CAP
1 *1231:A0 0.000110536
2 *1617:X 0.000110536
3 *1231:A0 *420:10 0
4 *163:45 *1231:A0 2.89114e-05
*RES
1 *1617:X *1231:A0 29.1714 
*END

*D_NET *412 0.000575698
*CONN
*I *1240:A0 I *D sky130_fd_sc_hd__mux2_1
*I *1618:X O *D sky130_fd_sc_hd__dlygate4sd3_1
*CAP
1 *1240:A0 0.00014514
2 *1618:X 0.00014514
3 *1240:A1 *1240:A0 0.00010096
4 *1312:A *1240:A0 5.14204e-05
5 *163:70 *1240:A0 5.33334e-05
6 *254:82 *1240:A0 2.58821e-05
7 *254:109 *1240:A0 5.38218e-05
*RES
1 *1618:X *1240:A0 22.0107 
*END

*D_NET *413 0.0154066
*CONN
*I *1325:B I *D sky130_fd_sc_hd__and4b_1
*I *1169:A1 I *D sky130_fd_sc_hd__a21oi_1
*I *1166:B I *D sky130_fd_sc_hd__and3_1
*I *1399:B I *D sky130_fd_sc_hd__and4_1
*I *1272:A1 I *D sky130_fd_sc_hd__a21o_1
*I *1159:D1 I *D sky130_fd_sc_hd__o2111a_1
*I *1623:X O *D sky130_fd_sc_hd__clkbuf_2
*CAP
1 *1325:B 0
2 *1169:A1 1.8802e-05
3 *1166:B 0.000130431
4 *1399:B 0.000126637
5 *1272:A1 0.000641747
6 *1159:D1 0.000313605
7 *1623:X 0.00104078
8 *413:77 0.000305484
9 *413:49 0.000768384
10 *413:36 0.000357177
11 *413:34 0.000244888
12 *413:32 0.000462754
13 *413:30 0.00232416
14 *413:12 0.00294725
15 *1159:D1 *1159:C1 0.000525892
16 *1159:D1 *1325:A_N 1.38323e-05
17 *1159:D1 *515:18 0.000226946
18 *1166:B *1166:A 2.07878e-05
19 *1166:B *514:16 2.70242e-05
20 *1272:A1 *1159:C1 0.000146853
21 *1272:A1 *1557:A 0.000131439
22 *1272:A1 *1645:A 0.000142856
23 *1272:A1 *1647:A 0
24 *1272:A1 *427:10 6.58289e-05
25 *1272:A1 *515:14 0
26 *1399:B *1325:A_N 7.17807e-05
27 *413:12 *1270:A1 7.81337e-05
28 *413:12 *1646:A 0
29 *413:12 *477:12 0.000249652
30 *413:30 *1610:A 5.33433e-05
31 *413:36 *1325:A_N 5.50052e-05
32 *413:77 *1647:A 9.68367e-05
33 *413:77 *514:16 2.39329e-05
34 underrun *413:12 5.38886e-05
35 *1166:C *1166:B 2.51343e-06
36 *1170:A *1272:A1 0
37 *1170:B *1166:B 9.99853e-05
38 *1170:B *1272:A1 0.000149886
39 *1170:B *413:77 2.12005e-05
40 *1197:A *413:12 6.1684e-05
41 *1204:A0 *413:30 6.97409e-05
42 *1204:S *413:30 0.000203106
43 *1205:A *413:30 8.82542e-05
44 *1208:A *413:12 9.58689e-05
45 *1213:A0 *413:12 0.000110682
46 *1213:A0 *413:30 5.66971e-05
47 *1213:S *413:30 6.59181e-05
48 *1214:A *413:30 0.000226066
49 *1288:A *1272:A1 0
50 *1316:A *413:30 0.000310941
51 *1322:A *1166:B 0
52 *1322:A *1169:A1 0
53 *1325:D *413:32 2.3541e-05
54 *1415:A *413:12 0.000290756
55 *1416:S *413:12 0
56 *1461:D *413:30 1.64343e-05
57 *1470:D *413:30 5.6647e-05
58 *1471:D *413:30 1.07719e-05
59 *1476:RESET_B *1272:A1 3.2534e-05
60 *1518:D *413:12 7.89362e-05
61 *1611:A *413:12 0.000140311
62 *148:27 *1166:B 1.82328e-05
63 *148:27 *1272:A1 1.03904e-05
64 *148:34 *413:77 0.00018372
65 *163:203 *413:30 0.00036326
66 *245:132 *1159:D1 1.62025e-05
67 *245:132 *413:32 0.000569163
68 *245:132 *413:34 4.97967e-05
69 *245:132 *413:36 2.12647e-05
70 *254:129 *413:12 0
71 *297:14 *1399:B 4.28167e-05
72 *343:10 *413:12 0.000153054
73 *400:10 *413:30 0.000100115
*RES
1 *1623:X *413:12 42.7464 
2 *413:12 *413:30 44.3214 
3 *413:30 *413:32 9.98214 
4 *413:32 *413:34 0.946429 
5 *413:34 *413:36 0.946429 
6 *413:36 *1159:D1 16.8536 
7 *413:36 *413:49 4.5 
8 *413:49 *1272:A1 26.8357 
9 *413:49 *1399:B 16.6571 
10 *413:34 *413:77 13.7321 
11 *413:77 *1166:B 12.3357 
12 *413:77 *1169:A1 9.72857 
13 *413:32 *1325:B 9.3 
*END

*D_NET *414 0.000159142
*CONN
*I *1633:A I *D sky130_fd_sc_hd__clkbuf_4
*I *1287:X O *D sky130_fd_sc_hd__clkbuf_1
*CAP
1 *1633:A 6.19173e-05
2 *1287:X 6.19173e-05
3 *1633:A *1599:A 3.53073e-05
*RES
1 *1287:X *1633:A 28.9393 
*END

*D_NET *415 0.000412297
*CONN
*I *1634:A I *D sky130_fd_sc_hd__clkbuf_4
*I *1284:X O *D sky130_fd_sc_hd__clkbuf_1
*CAP
1 *1634:A 0.000194438
2 *1284:X 0.000194438
3 *1634:A *422:14 2.34204e-05
*RES
1 *1284:X *1634:A 30.2964 
*END

*D_NET *416 0.0017463
*CONN
*I *1635:A I *D sky130_fd_sc_hd__clkbuf_4
*I *1616:A I *D sky130_fd_sc_hd__dlygate4sd3_1
*I *1464:Q O *D sky130_fd_sc_hd__dfrtp_1
*CAP
1 *1635:A 0.000302861
2 *1616:A 0.000217041
3 *1464:Q 8.88216e-05
4 *416:10 0.000608724
5 *1616:A *431:18 0.000204302
6 *1635:A *431:18 0.000324555
*RES
1 *1464:Q *416:10 15.0679 
2 *416:10 *1616:A 18.4786 
3 *416:10 *1635:A 21.5143 
*END

*D_NET *417 0.000486833
*CONN
*I *1636:A I *D sky130_fd_sc_hd__buf_2
*I *1606:A I *D sky130_fd_sc_hd__dlygate4sd3_1
*I *1465:Q O *D sky130_fd_sc_hd__dfrtp_1
*CAP
1 *1636:A 0
2 *1606:A 9.27105e-05
3 *1465:Q 8.76056e-05
4 *417:8 0.000180316
5 *1606:A *431:18 6.80593e-05
6 *417:8 *431:18 3.46992e-05
7 dout[1] *417:8 2.34423e-05
*RES
1 *1465:Q *417:8 15.7464 
2 *417:8 *1606:A 16.05 
3 *417:8 *1636:A 13.8 
*END

*D_NET *418 0.0061233
*CONN
*I *1249:A0 I *D sky130_fd_sc_hd__mux2_1
*I *1637:A I *D sky130_fd_sc_hd__clkbuf_4
*I *1466:Q O *D sky130_fd_sc_hd__dfrtp_1
*CAP
1 *1249:A0 0
2 *1637:A 0
3 *1466:Q 0.000300848
4 *418:18 0.00178071
5 *418:12 0.00208156
6 *418:12 *430:33 0
7 *418:18 *1286:A_N 0
8 *418:18 *1599:A 0
9 *418:18 *430:33 0
10 *418:18 *444:10 0.000230475
11 *1276:A *418:18 0
12 *1286:B *418:18 0
13 *1466:RESET_B *418:12 3.8524e-05
14 *1474:D *418:18 9.99668e-05
15 *1479:D *418:18 6.65302e-05
16 *1491:CLK *418:18 0
17 *1491:D *418:18 3.17784e-05
18 *163:24 *418:12 0.000129868
19 *254:8 *418:18 0.000134052
20 *254:29 *418:12 1.02504e-05
21 *254:29 *418:18 0.0010559
22 *254:46 *418:12 0.000162832
*RES
1 *1466:Q *418:12 18.7643 
2 *418:12 *418:18 43.9643 
3 *418:18 *1637:A 9.3 
4 *418:12 *1249:A0 13.8 
*END

*D_NET *419 0.00519146
*CONN
*I *1638:A I *D sky130_fd_sc_hd__clkbuf_4
*I *1618:A I *D sky130_fd_sc_hd__dlygate4sd3_1
*I *1467:Q O *D sky130_fd_sc_hd__dfrtp_1
*CAP
1 *1638:A 0.00133461
2 *1618:A 0.00010394
3 *1467:Q 0
4 *419:4 0.00143855
5 *1638:A *1424:A0 0.000375313
6 *1638:A *1424:A1 9.71197e-05
7 *1638:A *433:14 0.000261836
8 *1365:A1 *1638:A 2.56601e-05
9 *1365:S *1638:A 0
10 *1406:A0 *1638:A 0.000147833
11 *1424:S *1638:A 7.15704e-05
12 *1438:A1 *1638:A 0
13 *1439:A *1638:A 7.41421e-05
14 *1496:D *1638:A 0.000174544
15 *1514:CLK *1638:A 4.63685e-05
16 *1514:D *1638:A 5.7298e-05
17 *172:108 *1618:A 3.17377e-05
18 *278:61 *1618:A 0
19 *319:78 *1638:A 0.000614142
20 *319:84 *1638:A 1.21837e-05
21 *336:66 *1638:A 9.98043e-05
22 *336:70 *1638:A 2.26327e-05
23 *336:87 *1638:A 0.000176074
24 *336:133 *1638:A 2.60984e-05
*RES
1 *1467:Q *419:4 9.3 
2 *419:4 *1618:A 20.0679 
3 *419:4 *1638:A 47.0679 
*END

*D_NET *420 0.00194518
*CONN
*I *1639:A I *D sky130_fd_sc_hd__clkbuf_4
*I *1617:A I *D sky130_fd_sc_hd__dlygate4sd3_1
*I *1468:Q O *D sky130_fd_sc_hd__dfrtp_1
*CAP
1 *1639:A 0.000783417
2 *1617:A 0
3 *1468:Q 0.000184905
4 *420:10 0.000968322
5 *1231:A0 *420:10 0
6 *1232:A *420:10 8.53171e-06
7 *1513:CLK *1639:A 0
8 *334:55 *1639:A 0
9 *334:55 *420:10 0
*RES
1 *1468:Q *420:10 16.3893 
2 *420:10 *1617:A 13.8 
3 *420:10 *1639:A 28.1929 
*END

*D_NET *421 0.00300373
*CONN
*I *1640:A I *D sky130_fd_sc_hd__clkbuf_4
*I *1615:A I *D sky130_fd_sc_hd__dlygate4sd3_1
*I *1469:Q O *D sky130_fd_sc_hd__dfrtp_1
*CAP
1 *1640:A 0.000413158
2 *1615:A 0.000310637
3 *1469:Q 8.30784e-05
4 *421:10 0.000806873
5 *1615:A *1355:A0 1.27784e-05
6 *1615:A *455:10 0.000203685
7 *1615:A *455:25 7.63104e-05
8 *421:10 *455:25 5.33005e-05
9 *1222:A0 *1615:A 0.000147603
10 *1232:A *1640:A 7.17136e-05
11 *1313:A *1640:A 9.71197e-05
12 *1468:D *1640:A 3.88139e-05
13 *1492:D *1615:A 1.02504e-05
14 *1492:D *1640:A 0.000153047
15 *1492:D *421:10 9.90367e-05
16 *163:45 *1640:A 0
17 *254:46 *1615:A 0.000158955
18 *254:46 *1640:A 3.34687e-05
19 *254:61 *1640:A 0.000118349
20 *254:82 *1640:A 8.46829e-05
21 *346:16 *1615:A 3.08664e-05
*RES
1 *1469:Q *421:10 15.5857 
2 *421:10 *1615:A 21.5679 
3 *421:10 *1640:A 22.6214 
*END

*D_NET *422 0.0164856
*CONN
*I *1404:A1 I *D sky130_fd_sc_hd__mux2_1
*I *1440:A1 I *D sky130_fd_sc_hd__mux2_1
*I *1367:A1 I *D sky130_fd_sc_hd__mux2_1
*I *1422:A1 I *D sky130_fd_sc_hd__mux2_1
*I *1331:A1 I *D sky130_fd_sc_hd__mux2_1
*I *1292:A1 I *D sky130_fd_sc_hd__mux2_1
*I *1385:A0 I *D sky130_fd_sc_hd__mux2_1
*I *1349:A1 I *D sky130_fd_sc_hd__mux2_1
*I *1624:X O *D sky130_fd_sc_hd__buf_2
*CAP
1 *1404:A1 0
2 *1440:A1 0.000235667
3 *1367:A1 0
4 *1422:A1 1.45127e-05
5 *1331:A1 0.000256824
6 *1292:A1 0
7 *1385:A0 0
8 *1349:A1 0.000191439
9 *1624:X 0.00168477
10 *422:105 0.000528474
11 *422:92 0.000381252
12 *422:66 0.00065486
13 *422:54 0.000569905
14 *422:50 0.0012042
15 *422:30 0.00155059
16 *422:14 0.00232054
17 *1331:A1 *1331:A0 5.49489e-05
18 *1349:A1 *1349:A0 7.43578e-06
19 *1440:A1 *1367:A0 0
20 *422:14 *1404:A0 2.27416e-05
21 *422:14 *1446:A0 0
22 *422:14 *1654:A 0.000599097
23 *422:30 *1404:A0 4.30382e-05
24 *422:30 *425:55 0.000101545
25 *422:50 *1428:A0 0
26 *422:50 *425:55 0.000718263
27 *422:50 *438:75 0.000115859
28 *422:50 *455:48 0.000105471
29 *422:50 *455:50 5.66157e-05
30 *422:50 *455:74 0.000339705
31 *422:54 *1292:A0 5.52238e-05
32 *422:66 *1292:A0 1.74352e-05
33 *422:66 *1385:A1 0.00018077
34 *1227:A2 *422:30 0.000103253
35 *1227:B1 *422:50 5.83304e-05
36 *1229:A2 *422:30 6.27892e-05
37 *1252:B1 *422:66 0.00032103
38 *1253:A *422:14 8.49318e-05
39 *1254:A1 *422:92 3.99248e-05
40 *1254:A2 *422:30 0.000111413
41 *1254:B1 *422:30 1.58163e-05
42 *1256:B1 *422:30 1.32056e-05
43 *1256:B1 *422:92 0.000269795
44 *1256:B1 *422:105 0.000634686
45 *1257:B1 *1331:A1 0.000135012
46 *1257:B1 *422:54 2.24079e-05
47 *1257:B1 *422:66 0.000317082
48 *1284:A *422:14 0
49 *1292:S *1331:A1 4.13496e-05
50 *1292:S *422:54 2.89114e-05
51 *1349:S *1349:A1 3.1367e-05
52 *1373:S *1440:A1 3.41848e-05
53 *1404:S *422:14 2.8266e-06
54 *1422:S *1422:A1 5.7661e-06
55 *1428:S *422:50 0
56 *1500:D *422:14 0
57 *1532:D *422:14 0.000101771
58 *1543:A *422:50 0.000583818
59 *1580:A *422:66 0.000242957
60 *1605:A *422:14 0.000129868
61 *1634:A *422:14 2.34204e-05
62 *165:171 *422:30 3.14078e-05
63 *165:171 *422:50 5.46492e-05
64 *258:85 *422:50 0
65 *278:65 *1440:A1 0.000127814
66 *288:100 *422:66 7.71145e-05
67 *309:95 *1422:A1 5.38444e-06
68 *309:95 *422:92 2.79421e-05
69 *309:95 *422:105 0.000472686
70 *328:83 *422:50 0.00014875
71 *334:86 *422:14 0
72 *370:10 *422:30 1.3701e-05
73 *381:12 *422:30 9.90431e-05
*RES
1 *1624:X *422:14 45.8179 
2 *422:14 *422:30 20.1964 
3 *422:30 *422:50 38.625 
4 *422:50 *422:54 2.08929 
5 *422:54 *422:66 11.9286 
6 *422:66 *1349:A1 12.7107 
7 *422:66 *1385:A0 9.3 
8 *422:54 *1292:A1 9.3 
9 *422:50 *1331:A1 13.9429 
10 *422:30 *422:92 2.58929 
11 *422:92 *1422:A1 9.72857 
12 *422:92 *422:105 13.3214 
13 *422:105 *1367:A1 13.8 
14 *422:105 *1440:A1 18.7821 
15 *422:14 *1404:A1 9.3 
*END

*D_NET *423 0.000604536
*CONN
*I *1614:A I *D sky130_fd_sc_hd__dlygate4sd3_1
*I *1641:A I *D sky130_fd_sc_hd__clkbuf_4
*I *1470:Q O *D sky130_fd_sc_hd__dfrtp_1
*CAP
1 *1614:A 0
2 *1641:A 0.00014995
3 *1470:Q 7.62753e-05
4 *423:8 0.000226226
5 *1641:A *477:12 3.01126e-05
6 *423:8 *477:12 3.45488e-05
7 dout[6] *1641:A 8.1835e-05
8 dout[6] *423:8 5.58875e-06
*RES
1 *1470:Q *423:8 15.4429 
2 *423:8 *1641:A 17.1929 
3 *423:8 *1614:A 13.8 
*END

*D_NET *424 0.00151977
*CONN
*I *1610:A I *D sky130_fd_sc_hd__dlygate4sd3_1
*I *1642:A I *D sky130_fd_sc_hd__clkbuf_4
*I *1471:Q O *D sky130_fd_sc_hd__dfrtp_1
*CAP
1 *1610:A 0.000232775
2 *1642:A 0.000451199
3 *1471:Q 0
4 *424:4 0.000683974
5 *1642:A *1395:A0 0
6 *1471:RESET_B *1610:A 0
7 *1471:RESET_B *1642:A 9.84792e-05
8 *413:30 *1610:A 5.33433e-05
*RES
1 *1471:Q *424:4 9.3 
2 *424:4 *1642:A 25.2643 
3 *424:4 *1610:A 22.4071 
*END

*D_NET *425 0.0255889
*CONN
*I *1278:A I *D sky130_fd_sc_hd__or2_1
*I *1643:A I *D sky130_fd_sc_hd__clkbuf_4
*I *1270:A2 I *D sky130_fd_sc_hd__a21o_1
*I *1269:Y O *D sky130_fd_sc_hd__nor2_2
*CAP
1 *1278:A 0
2 *1643:A 0.00116962
3 *1270:A2 0.000609877
4 *1269:Y 0
5 *425:67 0.00232069
6 *425:55 0.00248188
7 *425:22 0.00354954
8 *425:4 0.00427048
9 *1270:A2 *1258:A0 7.0611e-05
10 *1270:A2 *1270:A1 5.54817e-06
11 *1270:A2 *1270:B1 0.00028478
12 *1270:A2 *431:18 0.000262134
13 *1643:A *433:14 0.000984426
14 *425:22 *1357:A1 0.000273485
15 *425:22 *1430:A0 5.52302e-05
16 *425:22 *437:89 5.30637e-06
17 *425:22 *437:112 0.000123993
18 *425:55 *437:89 5.83233e-05
19 *425:55 *437:112 0.000190143
20 *425:55 *437:122 0.000741586
21 *425:67 *1440:A0 2.72967e-05
22 *425:67 *1654:A 0
23 *425:67 *433:14 0.000106336
24 *425:67 *437:122 6.2589e-06
25 dout[3] *1643:A 7.8195e-05
26 unused[3] *425:67 0.000187041
27 used[0] *425:67 0.000670527
28 *1208:A *1270:A2 5.66971e-05
29 *1220:A1 *425:22 0.000259542
30 *1227:A2 *425:55 0.000167031
31 *1228:B2 *425:55 6.20004e-05
32 *1230:B2 *425:55 0
33 *1238:A2 *425:22 8.58577e-06
34 *1238:B1 *425:22 2.59355e-05
35 *1239:B2 *425:22 0.000176825
36 *1255:B2 *425:67 0.000580978
37 *1278:B *425:55 5.52302e-05
38 *1278:B *425:67 2.79092e-05
39 *1338:A *425:55 0.000282465
40 *1357:S *425:22 0.000142152
41 *1358:A *425:22 4.2481e-05
42 *1374:A *425:67 0.000112561
43 *1413:A *1270:A2 0.000142157
44 *1415:A *1270:A2 4.27842e-06
45 *1446:S *425:55 0.00015244
46 *1483:D *425:22 4.87669e-06
47 *1543:A *425:55 8.73823e-05
48 *1561:A *425:55 6.24636e-05
49 *1562:A *425:22 0.00038379
50 *1621:A *1643:A 0.000142856
51 *1625:A *1643:A 0.000142856
52 *142:132 *425:55 0.000513438
53 *172:53 *425:22 0.00062905
54 *172:66 *425:22 1.21289e-05
55 *245:33 *425:55 0.000409033
56 *245:46 *425:55 0.000256305
57 *254:82 *425:55 0.000153054
58 *254:123 *1270:A2 0.000296844
59 *254:129 *1270:A2 0
60 *328:10 *425:22 5.33433e-05
61 *328:83 *425:55 0.000101758
62 *340:14 *425:22 4.88132e-05
63 *386:12 *425:67 0.000230482
64 *401:6 *1643:A 0.000219719
65 *401:8 *1643:A 0.000188325
66 *422:30 *425:55 0.000101545
67 *422:50 *425:55 0.000718263
*RES
1 *1269:Y *425:4 9.3 
2 *425:4 *425:22 47.8214 
3 *425:22 *1270:A2 33.55 
4 *425:4 *425:55 48.0536 
5 *425:55 *425:67 34.5089 
6 *425:67 *1643:A 37.5768 
7 *425:55 *1278:A 9.3 
*END

*D_NET *426 0.00737158
*CONN
*I *1644:A I *D sky130_fd_sc_hd__buf_2
*I *1272:A2 I *D sky130_fd_sc_hd__a21o_1
*I *1271:Y O *D sky130_fd_sc_hd__inv_2
*CAP
1 *1644:A 0.00194725
2 *1272:A2 3.35406e-05
3 *1271:Y 0.000403515
4 *426:10 0.0023843
5 *1272:A2 *1272:B1 5.71472e-05
6 *1272:A2 *1557:A 0.000232399
7 *1272:A2 *1647:A 9.47613e-05
8 *1644:A *1395:A0 7.06479e-05
9 *1644:A *1397:A1 7.14951e-05
10 *1644:A *1557:A 0.000114404
11 *1644:A *1647:A 0.000227047
12 *1644:A *488:16 7.10746e-05
13 *426:10 *1647:A 0
14 *426:10 *427:10 0
15 *426:10 *514:10 6.75007e-05
16 unused[0] *1644:A 0.000332153
17 *1395:S *1644:A 0.000904281
18 *1397:S *1644:A 9.83442e-05
19 *1398:A *1644:A 0.000110076
20 *1462:D *426:10 0
21 *1630:A *1644:A 9.83442e-05
22 *37:10 *426:10 0
23 *288:38 *1644:A 5.33005e-05
*RES
1 *1271:Y *426:10 25.1036 
2 *426:10 *1272:A2 11.4786 
3 *426:10 *1644:A 49.6571 
*END

*D_NET *427 0.0058335
*CONN
*I *1557:A I *D sky130_fd_sc_hd__dlygate4sd3_1
*I *1645:A I *D sky130_fd_sc_hd__clkbuf_4
*I *1462:Q O *D sky130_fd_sc_hd__dfrtp_1
*CAP
1 *1557:A 0.000129647
2 *1645:A 0.00193424
3 *1462:Q 9.1287e-05
4 *427:10 0.00215518
5 *1557:A *1272:B1 7.32955e-05
6 *427:10 *1647:A 0.000102545
7 unused[0] *1557:A 0.000186669
8 *1272:A1 *1557:A 0.000131439
9 *1272:A1 *1645:A 0.000142856
10 *1272:A1 *427:10 6.58289e-05
11 *1272:A2 *1557:A 0.000232399
12 *1306:A *1645:A 7.08461e-05
13 *1323:A *1645:A 0.000276211
14 *1462:D *1557:A 1.00073e-05
15 *1462:D *1645:A 1.40306e-05
16 *1644:A *1557:A 0.000114404
17 *402:6 *1645:A 0.000102612
18 *426:10 *427:10 0
*RES
1 *1462:Q *427:10 20.55 
2 *427:10 *1645:A 41.05 
3 *427:10 *1557:A 14.3714 
*END

*D_NET *428 0.00226842
*CONN
*I *1546:A I *D sky130_fd_sc_hd__dlygate4sd3_1
*I *1646:A I *D sky130_fd_sc_hd__buf_2
*I *1463:Q O *D sky130_fd_sc_hd__dfrtp_1
*CAP
1 *1546:A 0.000123629
2 *1646:A 0.000747122
3 *1463:Q 0
4 *428:6 0.000870751
5 *1546:A *431:18 8.92417e-05
6 *1646:A *431:18 4.66744e-05
7 underrun *1646:A 8.46642e-05
8 *1197:A *1646:A 4.57445e-05
9 *1208:A *1646:A 6.44649e-05
10 *1609:A *1646:A 0.000107104
11 *1611:A *1646:A 8.902e-05
12 *413:12 *1646:A 0
*RES
1 *1463:Q *428:6 13.8 
2 *428:6 *1646:A 30.0143 
3 *428:6 *1546:A 16.9607 
*END

*D_NET *429 0.00758971
*CONN
*I *1536:A I *D sky130_fd_sc_hd__buf_1
*I *1285:A1 I *D sky130_fd_sc_hd__a21oi_2
*I *1647:A I *D sky130_fd_sc_hd__clkbuf_4
*I *1274:X O *D sky130_fd_sc_hd__dlymetal6s2s_1
*CAP
1 *1536:A 6.38299e-05
2 *1285:A1 8.16369e-05
3 *1647:A 0.00106418
4 *1274:X 2.76349e-05
5 *429:25 0.000435938
6 *429:8 0.00138229
7 *1285:A1 *1270:A1 0.000100368
8 *1285:A1 *1285:A2 5.45307e-05
9 *1647:A *1272:B1 0.000188586
10 *1647:A *1326:A 0
11 *1647:A *1345:A_N 0.000181411
12 *1647:A *1436:A_N 0.00016834
13 *1647:A *514:59 0.000288878
14 *1647:A *514:70 0.000121573
15 *1647:A *514:83 5.41794e-05
16 *429:8 *435:52 2.89114e-05
17 *429:25 *1444:A1 0
18 *1272:A1 *1647:A 0
19 *1272:A2 *1647:A 9.47613e-05
20 *1280:C *1647:A 0
21 *1280:C *429:25 0
22 *1399:C *1647:A 0.000255407
23 *1444:S *429:25 0
24 *1462:D *1647:A 0.000665667
25 *1476:RESET_B *1647:A 0.000101545
26 *1644:A *1647:A 0.000227047
27 *37:10 *1647:A 0.000482814
28 *140:21 *1647:A 0
29 *165:38 *1285:A1 0.000205884
30 *165:38 *1536:A 0.000191447
31 *176:24 *1285:A1 0.00048916
32 *176:24 *1536:A 0.000356682
33 *256:10 *1647:A 0
34 *297:14 *1647:A 7.76348e-05
35 *413:77 *1647:A 9.68367e-05
36 *426:10 *1647:A 0
37 *427:10 *1647:A 0.000102545
*RES
1 *1274:X *429:8 14.3357 
2 *429:8 *1647:A 43.3179 
3 *429:8 *429:25 9.48214 
4 *429:25 *1285:A1 13.9429 
5 *429:25 *1536:A 12.7107 
*END

*D_NET *430 0.0126551
*CONN
*I *1648:A I *D sky130_fd_sc_hd__clkbuf_4
*I *1286:C I *D sky130_fd_sc_hd__and3b_1
*I *1285:Y O *D sky130_fd_sc_hd__a21oi_2
*CAP
1 *1648:A 0
2 *1286:C 0.000665667
3 *1285:Y 0.00254713
4 *430:33 0.00215738
5 *430:14 0.00537018
6 *1286:C *1286:A_N 1.72894e-05
7 *430:14 *1182:D1 8.79942e-05
8 *430:14 *1270:A1 3.00598e-05
9 *430:14 *431:14 6.44295e-06
10 *430:14 *499:44 0.000445495
11 *430:33 *1653:A 0.000153047
12 *430:33 *436:10 0.000198483
13 unused[1] *430:33 0
14 *1223:A *430:33 0.000347803
15 *1276:A *1286:C 0
16 *1276:A *430:33 0
17 *1281:A1 *430:14 0.000113575
18 *1286:B *1286:C 0
19 *1466:CLK *430:33 0
20 *1466:D *430:33 6.74911e-05
21 *1468:D *430:33 0.000128154
22 *1469:CLK *430:33 0
23 *1469:D *430:33 0.000128161
24 *1489:D *430:33 5.48581e-05
25 *1491:CLK *430:33 0.00012677
26 *1492:CLK *430:33 0
27 *1537:A *430:14 0
28 *142:40 *430:14 9.11048e-06
29 *142:55 *430:14 0
30 *163:24 *430:33 0
31 *333:22 *430:33 0
32 *333:24 *430:33 0
33 *334:55 *430:33 0
34 *418:12 *430:33 0
35 *418:18 *430:33 0
*RES
1 *1285:Y *430:14 27.0586 
2 *430:14 *1286:C 25.5411 
3 *430:14 *430:33 48.8482 
4 *430:33 *1648:A 9.3 
*END

*D_NET *431 0.0158515
*CONN
*I *1649:A I *D sky130_fd_sc_hd__buf_2
*I *1281:X O *D sky130_fd_sc_hd__o21a_1
*CAP
1 *1649:A 0
2 *1281:X 0.00470775
3 *431:18 0.00175817
4 *431:14 0.00646592
5 *431:14 *1270:A1 0
6 dout[1] *431:18 4.75911e-05
7 *1208:A *431:18 1.90936e-05
8 *1266:A1 *431:18 0.00010326
9 *1268:A *431:18 0
10 *1270:A2 *431:18 0.000262134
11 *1281:A1 *431:14 9.59532e-06
12 *1415:A *431:18 4.25594e-05
13 *1464:RESET_B *431:18 5.56943e-05
14 *1465:RESET_B *431:18 9.80029e-05
15 *1546:A *431:18 8.92417e-05
16 *1592:A *431:18 0.000250201
17 *1606:A *431:18 6.80593e-05
18 *1616:A *431:18 0.000204302
19 *1628:A *431:18 0
20 *1635:A *431:18 0.000324555
21 *1646:A *431:18 4.66744e-05
22 *175:50 *431:14 0.00085217
23 *254:113 *431:18 0.000256152
24 *254:123 *431:18 0
25 *342:12 *431:18 0.00014925
26 *417:8 *431:18 3.46992e-05
27 *430:14 *431:14 6.44295e-06
*RES
1 *1281:X *431:14 29.3035 
2 *431:14 *431:18 48.7946 
3 *431:18 *1649:A 9.3 
*END

*D_NET *432 0.000166712
*CONN
*I *1650:A I *D sky130_fd_sc_hd__clkbuf_4
*I *1279:X O *D sky130_fd_sc_hd__clkbuf_1
*CAP
1 *1650:A 6.55023e-05
2 *1279:X 6.55023e-05
3 *1374:A *1650:A 3.5707e-05
*RES
1 *1279:X *1650:A 28.9393 
*END

*D_NET *433 0.0147519
*CONN
*I *1442:A1 I *D sky130_fd_sc_hd__mux2_1
*I *1369:A1 I *D sky130_fd_sc_hd__mux2_1
*I *1424:A1 I *D sky130_fd_sc_hd__mux2_1
*I *1406:A1 I *D sky130_fd_sc_hd__mux2_1
*I *1387:A0 I *D sky130_fd_sc_hd__mux2_1
*I *1351:A1 I *D sky130_fd_sc_hd__mux2_1
*I *1333:A1 I *D sky130_fd_sc_hd__mux2_1
*I *1294:A1 I *D sky130_fd_sc_hd__mux2_1
*I *1625:X O *D sky130_fd_sc_hd__clkbuf_2
*CAP
1 *1442:A1 0.000563769
2 *1369:A1 0
3 *1424:A1 4.57542e-05
4 *1406:A1 0.000736542
5 *1387:A0 0.000178222
6 *1351:A1 0.000126116
7 *1333:A1 0
8 *1294:A1 0.000187158
9 *1625:X 0.000645092
10 *433:50 0.00101816
11 *433:40 0.00145037
12 *433:22 0.000282895
13 *433:20 0.000362089
14 *433:18 0.000513052
15 *433:16 0.000239658
16 *433:14 0.00124757
17 *1406:A1 *1383:A1 4.46186e-06
18 *1442:A1 *1442:A0 3.11088e-05
19 *433:14 *434:12 0
20 *433:18 *434:12 0
21 *433:20 *1333:A0 9.67416e-05
22 *433:22 *1333:A0 3.69697e-05
23 *1240:A1 *1387:A0 0.000191421
24 *1246:A2 *433:14 0.000256378
25 *1246:A2 *433:16 8.956e-05
26 *1246:A2 *433:18 0.000221886
27 *1247:A1 *433:18 0.00012798
28 *1247:A1 *433:20 9.08727e-05
29 *1247:C1 *433:14 0.000195706
30 *1247:C1 *433:16 9.96487e-05
31 *1247:C1 *433:18 0.000603139
32 *1247:C1 *433:20 0.000188746
33 *1255:B2 *433:14 0
34 *1295:A *1294:A1 0.000124177
35 *1365:A1 *433:14 0.000316184
36 *1482:D *1406:A1 0.00025266
37 *1482:D *433:50 0.000476696
38 *1490:CLK *1387:A0 0.000122278
39 *1498:CLK *1442:A1 0.000134452
40 *1498:D *1442:A1 1.64343e-05
41 *1596:A *433:20 1.30604e-05
42 *1596:A *433:22 6.8646e-06
43 *1625:A *433:14 5.71472e-05
44 *1638:A *1424:A1 9.71197e-05
45 *1638:A *433:14 0.000261836
46 *1643:A *433:14 0.000984426
47 *163:86 *1406:A1 2.16162e-05
48 *172:98 *1294:A1 6.6717e-05
49 *172:98 *433:20 7.46439e-05
50 *172:98 *433:22 4.53031e-05
51 *176:77 *1406:A1 0
52 *254:109 *433:20 8.23597e-06
53 *258:85 *1351:A1 0.00018372
54 *258:85 *433:50 0.000340952
55 *258:110 *1294:A1 0
56 *258:110 *433:22 0
57 *278:61 *433:50 7.83659e-05
58 *299:22 *1387:A0 8.82209e-05
59 *319:78 *1406:A1 0.000242432
60 *319:104 *1442:A1 5.47247e-05
61 *336:40 *1406:A1 7.72704e-05
62 *336:99 *1442:A1 0.000128628
63 *339:14 *1406:A1 3.22964e-05
64 *355:10 *433:14 1.46624e-05
65 *401:8 *433:14 0.000493359
66 *425:67 *433:14 0.000106336
*RES
1 *1625:X *433:14 36.0857 
2 *433:14 *433:16 1.33929 
3 *433:16 *433:18 7.71429 
4 *433:18 *433:20 5.89286 
5 *433:20 *433:22 1.94643 
6 *433:22 *1294:A1 17.8714 
7 *433:22 *1333:A1 13.8 
8 *433:20 *433:40 4.5 
9 *433:40 *433:50 18.9107 
10 *433:50 *1351:A1 11.0679 
11 *433:50 *1387:A0 23.2821 
12 *433:40 *1406:A1 28.9786 
13 *433:18 *1424:A1 14.7464 
14 *433:16 *1369:A1 13.8 
15 *433:14 *1442:A1 21.3179 
*END

*D_NET *434 0.00992554
*CONN
*I *1651:A I *D sky130_fd_sc_hd__clkbuf_4
*I *1536:X O *D sky130_fd_sc_hd__buf_1
*CAP
1 *1651:A 0
2 *1536:X 0.000326646
3 *434:12 0.00181695
4 *434:10 0.00214359
5 *1190:A *434:10 0.00022118
6 *1190:A *434:12 0
7 *1237:A1 *434:12 0.000259434
8 *1238:B1 *434:12 0.000413047
9 *1238:C1 *434:12 0.00090564
10 *1243:A1 *434:12 0.000257133
11 *1243:A2 *434:12 1.94879e-05
12 *1246:A2 *434:12 7.18702e-05
13 *1247:A1 *434:12 0.000210154
14 *1248:B2 *434:12 0.000260519
15 *1255:B2 *434:12 0.000107527
16 *1370:A *434:12 0.000148685
17 *1456:D *434:12 0.000328239
18 *1530:CLK *434:12 0.000101704
19 *1545:A *434:12 0.000350361
20 *1612:A *434:12 0.000117257
21 *165:38 *434:10 0.000198808
22 *165:63 *434:12 0
23 *172:26 *434:12 6.63361e-05
24 *172:98 *434:12 0.000800027
25 *172:108 *434:12 0.000307269
26 *176:34 *434:12 2.81138e-05
27 *176:95 *434:12 0.000359355
28 *278:61 *434:12 0
29 *328:10 *434:12 5.74562e-05
30 *328:75 *434:12 4.87471e-05
31 *433:14 *434:12 0
32 *433:18 *434:12 0
*RES
1 *1536:X *434:10 20.1036 
2 *434:10 *434:12 50.8214 
3 *434:12 *1651:A 13.8 
*END

*D_NET *435 0.0129342
*CONN
*I *1652:A I *D sky130_fd_sc_hd__clkbuf_4
*I *1283:C I *D sky130_fd_sc_hd__and3b_1
*I *1285:A2 I *D sky130_fd_sc_hd__a21oi_2
*I *1282:X O *D sky130_fd_sc_hd__xor2_2
*CAP
1 *1652:A 0.000325732
2 *1283:C 0.00146943
3 *1285:A2 4.70531e-05
4 *1282:X 0
5 *435:52 0.00240241
6 *435:14 0.00180775
7 *435:4 0.00236795
8 *1283:C *1184:A2 5.25904e-05
9 *1283:C *437:44 3.15815e-05
10 *1283:C *437:48 6.44379e-05
11 *1283:C *437:81 0.000122454
12 *1652:A *1397:A0 0
13 *1652:A *1397:A1 0.000105242
14 *435:52 *1397:A1 0
15 *1172:A *435:14 0.000120329
16 *1193:A1 *435:52 0.000695832
17 *1194:B1 *435:52 0
18 *1273:A *435:14 0.000141734
19 *1273:A *435:52 1.10868e-05
20 *1273:B *435:52 0.000133778
21 *1274:A *435:52 5.71472e-05
22 *1281:A1 *1283:C 0.000375546
23 *1285:A1 *1285:A2 5.45307e-05
24 *1380:A *435:52 9.90431e-05
25 *1444:S *435:52 0.000119709
26 *1483:D *1283:C 9.33978e-07
27 *1510:D *1652:A 0
28 *1510:D *435:52 0.000103899
29 *1531:CLK *1283:C 0
30 *1632:A *1283:C 5.33005e-05
31 *142:40 *435:14 5.09361e-05
32 *165:38 *1285:A2 0.000151947
33 *176:24 *1285:A2 2.56246e-05
34 *241:10 *1283:C 4.35735e-05
35 *241:10 *435:14 9.85131e-05
36 *256:10 *435:52 0.000269428
37 *268:75 *435:52 2.09177e-05
38 *268:86 *435:52 0.000244665
39 *278:20 *435:52 0.000719165
40 *278:31 *435:52 0.000310518
41 *330:50 *1283:C 5.80494e-05
42 *368:10 *435:52 0.000148449
43 *429:8 *435:52 2.89114e-05
*RES
1 *1282:X *435:4 9.3 
2 *435:4 *435:14 10.8929 
3 *435:14 *1285:A2 15.5857 
4 *435:14 *1283:C 34.5857 
5 *435:4 *435:52 47.5446 
6 *435:52 *1652:A 18.0589 
*END

*D_NET *436 0.00422209
*CONN
*I *1653:A I *D sky130_fd_sc_hd__clkbuf_4
*I *1283:B I *D sky130_fd_sc_hd__and3b_1
*I *1276:Y O *D sky130_fd_sc_hd__inv_2
*CAP
1 *1653:A 7.39181e-05
2 *1283:B 0.00124212
3 *1276:Y 0.000257023
4 *436:10 0.00157306
5 *1283:B *1182:A2 4.63305e-05
6 *1283:B *437:48 9.2815e-05
7 used[2] *1653:A 0
8 *1491:D *1283:B 1.41302e-05
9 *163:14 *1283:B 0.000203161
10 *163:154 *1283:B 0.000312996
11 *242:12 *1283:B 5.50052e-05
12 *430:33 *1653:A 0.000153047
13 *430:33 *436:10 0.000198483
*RES
1 *1276:Y *436:10 18.1214 
2 *436:10 *1283:B 29.5321 
3 *436:10 *1653:A 15.7464 
*END

*D_NET *437 0.0257798
*CONN
*I *1184:A2 I *D sky130_fd_sc_hd__o211a_1
*I *1654:A I *D sky130_fd_sc_hd__clkbuf_4
*I *1277:B I *D sky130_fd_sc_hd__and2_1
*I *1269:B I *D sky130_fd_sc_hd__nor2_2
*I *1283:A_N I *D sky130_fd_sc_hd__and3b_1
*I *1186:A2 I *D sky130_fd_sc_hd__o21a_4
*I *1182:A2 I *D sky130_fd_sc_hd__o2111a_1
*I *1286:A_N I *D sky130_fd_sc_hd__and3b_1
*I *1179:A2 I *D sky130_fd_sc_hd__o211a_1
*I *1176:Y O *D sky130_fd_sc_hd__xnor2_4
*CAP
1 *1184:A2 0.000478911
2 *1654:A 0.00107755
3 *1277:B 0
4 *1269:B 0
5 *1283:A_N 0
6 *1186:A2 2.30805e-05
7 *1182:A2 0.0004008
8 *1286:A_N 0.00097143
9 *1179:A2 2.23854e-05
10 *1176:Y 0
11 *437:122 0.00163822
12 *437:112 0.00176387
13 *437:89 0.00144344
14 *437:81 0.00103087
15 *437:48 0.000558701
16 *437:44 0.000171669
17 *437:42 0.00101142
18 *437:8 0.00135368
19 *437:4 0.00102272
20 *1182:A2 *1182:D1 3.3304e-05
21 *1182:A2 *1186:B1 9.58689e-05
22 *1182:A2 *444:31 0.000242599
23 *1286:A_N *1180:A 9.80173e-05
24 *1286:A_N *1599:A 3.05446e-05
25 *437:8 *1174:B_N 0.000357945
26 *437:8 *1179:C1 5.33005e-05
27 *437:42 *1152:B 0
28 *437:42 *512:23 0
29 *437:44 *438:10 0.000140243
30 *437:48 *438:10 7.0172e-05
31 *437:81 *438:10 5.50052e-05
32 *437:122 *1373:A1 0.000208802
33 *437:122 *455:78 0.000735145
34 almost_full *1654:A 0.000129595
35 dout[4] *1654:A 5.62995e-05
36 *1179:B1 *437:8 5.52238e-05
37 *1182:A1 *1182:A2 1.60328e-05
38 *1182:B1 *1182:A2 0.000100037
39 *1183:A1 *437:42 5.08857e-05
40 *1184:B1 *1184:A2 3.30828e-05
41 *1185:A2 *437:42 0.000142206
42 *1186:A1 *1182:A2 0.000125321
43 *1186:A1 *1186:A2 9.35228e-06
44 *1186:A1 *437:48 6.65619e-05
45 *1228:B2 *437:122 0.000195119
46 *1257:B1 *437:112 0.000394741
47 *1278:B *437:122 8.00806e-05
48 *1283:B *1182:A2 4.63305e-05
49 *1283:B *437:48 9.2815e-05
50 *1283:C *1184:A2 5.25904e-05
51 *1283:C *437:44 3.15815e-05
52 *1283:C *437:48 6.44379e-05
53 *1283:C *437:81 0.000122454
54 *1286:B *1286:A_N 6.60598e-05
55 *1286:C *1286:A_N 1.72894e-05
56 *1287:A *1286:A_N 8.00806e-05
57 *1317:A *1179:A2 0
58 *1317:A *1286:A_N 3.14193e-05
59 *1317:A *437:8 6.27058e-05
60 *1320:A *1286:A_N 0.000185124
61 *1338:A *437:112 0.000311766
62 *1374:A *1654:A 7.27536e-05
63 *1374:A *437:122 5.52238e-05
64 *1446:S *437:122 4.04224e-05
65 *1473:CLK *1182:A2 5.10039e-05
66 *1473:CLK *437:42 8.80458e-05
67 *1473:D *1182:A2 0
68 *1483:CLK *437:112 0.000181276
69 *1561:A *437:122 0.000127781
70 *1624:A *1654:A 0.00010096
71 *1632:A *437:42 0.00031563
72 *1632:A *437:81 1.58163e-05
73 *142:55 *1184:A2 0.000324572
74 *142:73 *1182:A2 0.000354198
75 *142:116 *437:89 0.000547678
76 *142:132 *437:122 5.98769e-05
77 *158:83 *437:42 3.8206e-05
78 *163:154 *1182:A2 0.000225848
79 *165:38 *1184:A2 0.000362278
80 *165:171 *1184:A2 9.95963e-05
81 *165:171 *437:89 5.70945e-05
82 *165:171 *437:112 0.00116593
83 *165:171 *437:122 9.99444e-06
84 *167:10 *437:42 6.95022e-05
85 *168:30 *437:42 0.00108452
86 *242:12 *437:48 5.66971e-05
87 *245:33 *437:89 0.000165751
88 *245:33 *437:112 5.58941e-05
89 *245:46 *437:112 0.000265555
90 *254:82 *437:112 7.4826e-05
91 *258:56 *437:112 0
92 *329:14 *437:42 0.000103275
93 *329:105 *437:42 0.000176034
94 *418:18 *1286:A_N 0
95 *422:14 *1654:A 0.000599097
96 *425:22 *437:89 5.30637e-06
97 *425:22 *437:112 0.000123993
98 *425:55 *437:89 5.83233e-05
99 *425:55 *437:112 0.000190143
100 *425:55 *437:122 0.000741586
101 *425:67 *1654:A 0
102 *425:67 *437:122 6.2589e-06
*RES
1 *1176:Y *437:4 9.3 
2 *437:4 *437:8 7.42857 
3 *437:8 *1179:A2 9.72857 
4 *437:8 *1286:A_N 33.6036 
5 *437:4 *437:42 28.25 
6 *437:42 *437:44 1.35714 
7 *437:44 *437:48 4.25 
8 *437:48 *1182:A2 29.4964 
9 *437:48 *1186:A2 9.72857 
10 *437:44 *1283:A_N 9.3 
11 *437:42 *437:81 5.46429 
12 *437:81 *437:89 16.6429 
13 *437:89 *1269:B 9.3 
14 *437:89 *437:112 42.2589 
15 *437:112 *437:122 22.9732 
16 *437:122 *1277:B 9.3 
17 *437:122 *1654:A 33.3 
18 *437:81 *1184:A2 28.8536 
*END

*D_NET *438 0.015306
*CONN
*I *1260:B1 I *D sky130_fd_sc_hd__a22o_1
*I *1215:B1 I *D sky130_fd_sc_hd__a22o_1
*I *1242:B1 I *D sky130_fd_sc_hd__a22o_1
*I *1224:B1 I *D sky130_fd_sc_hd__a22o_1
*I *1251:B1 I *D sky130_fd_sc_hd__a22o_1
*I *1233:B1 I *D sky130_fd_sc_hd__a22o_1
*I *1632:X O *D sky130_fd_sc_hd__clkbuf_2
*CAP
1 *1260:B1 0
2 *1215:B1 0.000413563
3 *1242:B1 0
4 *1224:B1 0
5 *1251:B1 0.000152647
6 *1233:B1 1.66503e-05
7 *1632:X 0.00028266
8 *438:96 0.00120097
9 *438:75 0.00235903
10 *438:42 0.00193907
11 *438:23 0.00102195
12 *438:10 0.000801164
13 *438:10 *444:46 3.17067e-05
14 *438:23 *444:46 7.6021e-05
15 *438:42 *455:48 5.52302e-05
16 *438:75 *1337:A0 0.000125947
17 *438:75 *455:48 0.000462901
18 *438:96 *1294:A0 0.000232824
19 *1215:A2 *1215:B1 0.00010096
20 *1222:A1 *438:96 0.000112169
21 *1224:A1 *438:42 5.52302e-05
22 *1224:A1 *438:75 4.38128e-05
23 *1224:A2 *438:42 1.02969e-05
24 *1225:A1 *438:42 3.9733e-05
25 *1242:A1 *438:96 2.59355e-05
26 *1242:A2 *438:96 0.000120501
27 *1243:B1 *438:96 5.49995e-05
28 *1248:A2 *438:96 0.000120738
29 *1251:A2 *1251:B1 0.000183711
30 *1251:A2 *438:42 8.43386e-05
31 *1252:B1 *438:23 3.9733e-05
32 *1257:B2 *438:75 0
33 *1260:B2 *438:96 3.97285e-05
34 *1295:A *438:96 0.000177596
35 *1383:S *1215:B1 0
36 *1384:A *438:96 5.65955e-05
37 *1455:D *438:23 5.33882e-05
38 *1458:CLK *438:42 6.54496e-05
39 *1484:CLK *438:75 0.000284808
40 *1484:D *438:75 5.33091e-06
41 *1504:D *438:96 7.51573e-05
42 *1551:A *438:96 0.00014236
43 *1564:A *438:75 7.82514e-05
44 *158:102 *438:42 0.000192013
45 *158:135 *438:75 0.000563619
46 *167:10 *438:10 3.84385e-05
47 *167:25 *438:23 0.00030585
48 *167:38 *438:42 0.000154582
49 *167:65 *438:75 0.000120579
50 *167:65 *438:96 1.44983e-05
51 *167:84 *1215:B1 4.6025e-06
52 *176:77 *1215:B1 0.000109425
53 *219:12 *438:75 6.58525e-05
54 *227:8 *1215:B1 0.000141009
55 *242:12 *438:23 0
56 *242:12 *438:42 0
57 *245:85 *438:96 0.000105188
58 *245:102 *438:96 0.000582225
59 *258:85 *438:75 0.000573581
60 *278:61 *438:96 3.82066e-05
61 *288:68 *438:10 0.00017309
62 *288:68 *438:23 0.000162832
63 *299:22 *438:75 0
64 *330:16 *1233:B1 1.40415e-05
65 *333:10 *438:42 0.000203297
66 *335:85 *1215:B1 0.00015032
67 *341:6 *438:75 1.30607e-05
68 *364:8 *1233:B1 5.52302e-05
69 *365:16 *438:42 0
70 *422:50 *438:75 0.000115859
71 *437:44 *438:10 0.000140243
72 *437:48 *438:10 7.0172e-05
73 *437:81 *438:10 5.50052e-05
*RES
1 *1632:X *438:10 19.05 
2 *438:10 *1233:B1 14.3357 
3 *438:10 *438:23 16.4643 
4 *438:23 *1251:B1 12.3179 
5 *438:23 *438:42 18.6071 
6 *438:42 *1224:B1 9.3 
7 *438:42 *438:75 39.2679 
8 *438:75 *1242:B1 9.3 
9 *438:75 *438:96 27.7857 
10 *438:96 *1215:B1 26.8 
11 *438:96 *1260:B1 9.3 
*END

*D_NET *439 0.000880598
*CONN
*I *1270:B1 I *D sky130_fd_sc_hd__a21o_1
*I *1546:X O *D sky130_fd_sc_hd__dlygate4sd3_1
*CAP
1 *1270:B1 0.000202518
2 *1546:X 0.000202518
3 *1208:A *1270:B1 6.50185e-05
4 *1270:A2 *1270:B1 0.00028478
5 *1463:RESET_B *1270:B1 9.56747e-05
6 *254:129 *1270:B1 3.0089e-05
*RES
1 *1546:X *1270:B1 33.2786 
*END

*D_NET *440 0.000411676
*CONN
*I *1272:B1 I *D sky130_fd_sc_hd__a21o_1
*I *1557:X O *D sky130_fd_sc_hd__dlygate4sd3_1
*CAP
1 *1272:B1 4.63237e-05
2 *1557:X 4.63237e-05
3 *1272:A2 *1272:B1 5.71472e-05
4 *1557:A *1272:B1 7.32955e-05
5 *1647:A *1272:B1 0.000188586
*RES
1 *1557:X *1272:B1 20.7964 
*END

*D_NET *441 0.000437332
*CONN
*I *1377:A0 I *D sky130_fd_sc_hd__mux2_1
*I *1568:X O *D sky130_fd_sc_hd__dlygate4sd3_1
*CAP
1 *1377:A0 0.000107827
2 *1568:X 0.000107827
3 *1201:A2 *1377:A0 7.74135e-05
4 *1201:B1 *1377:A0 4.84016e-05
5 *166:76 *1377:A0 9.58632e-05
*RES
1 *1568:X *1377:A0 29.5821 
*END

*D_NET *442 0.00101366
*CONN
*I *1432:A0 I *D sky130_fd_sc_hd__mux2_1
*I *1579:X O *D sky130_fd_sc_hd__dlygate4sd3_1
*CAP
1 *1432:A0 0.000305884
2 *1579:X 0.000305884
3 *1432:A0 *477:83 6.92966e-06
4 *1432:A0 *477:100 4.86299e-05
5 *1211:A1 *1432:A0 9.19138e-05
6 *1211:A2 *1432:A0 6.96806e-05
7 *1211:B1 *1432:A0 3.49456e-06
8 *1211:C1 *1432:A0 4.7301e-05
9 *1432:S *1432:A0 5.50052e-05
10 *165:139 *1432:A0 7.89362e-05
*RES
1 *1579:X *1432:A0 33.6179 
*END

*D_NET *443 0.000923237
*CONN
*I *1335:A0 I *D sky130_fd_sc_hd__mux2_1
*I *1590:X O *D sky130_fd_sc_hd__dlygate4sd3_1
*CAP
1 *1335:A0 0.000140552
2 *1590:X 0.000140552
3 *1335:A0 *444:66 5.71472e-05
4 *1335:A0 *444:81 1.33343e-05
5 *1239:B1 *1335:A0 0.000300144
6 *1249:A1 *1335:A0 1.74352e-05
7 *1537:A *1335:A0 0.000174805
8 *258:40 *1335:A0 1.85443e-05
9 *258:56 *1335:A0 6.07232e-05
*RES
1 *1590:X *1335:A0 32.6357 
*END

*D_NET *444 0.0166509
*CONN
*I *1296:A1 I *D sky130_fd_sc_hd__mux2_1
*I *1426:A1 I *D sky130_fd_sc_hd__mux2_1
*I *1408:A1 I *D sky130_fd_sc_hd__mux2_1
*I *1371:A1 I *D sky130_fd_sc_hd__mux2_1
*I *1444:A1 I *D sky130_fd_sc_hd__mux2_1
*I *1335:A1 I *D sky130_fd_sc_hd__mux2_1
*I *1389:A0 I *D sky130_fd_sc_hd__mux2_1
*I *1353:A1 I *D sky130_fd_sc_hd__mux2_1
*I *1626:X O *D sky130_fd_sc_hd__buf_2
*CAP
1 *1296:A1 2.83744e-05
2 *1426:A1 0.000270424
3 *1408:A1 0
4 *1371:A1 0.000229306
5 *1444:A1 0.000464649
6 *1335:A1 0
7 *1389:A0 0
8 *1353:A1 2.75364e-05
9 *1626:X 0.00127259
10 *444:103 0.000270424
11 *444:83 0.000822767
12 *444:81 0.000358877
13 *444:66 0.00115748
14 *444:46 0.00131023
15 *444:31 0.00116476
16 *444:12 0.000837853
17 *444:10 0.00127259
18 *1353:A1 *1353:A0 5.66971e-05
19 *1371:A1 *1371:A0 5.66971e-05
20 *444:10 *1180:A 0.000153047
21 *444:31 *1353:A0 4.01923e-05
22 *444:46 *1389:A1 0.000185643
23 *444:81 *1408:A0 2.48938e-05
24 *444:83 *1408:A0 0.000128154
25 *1182:A2 *444:31 0.000242599
26 *1182:C1 *444:10 0
27 *1183:A2 *444:10 0
28 *1183:B1_N *444:10 0.000559974
29 *1185:B1_N *444:10 0
30 *1187:A *444:10 0
31 *1233:B2 *444:31 0
32 *1234:A2 *444:66 0.000446618
33 *1234:B1 *444:46 0.000164903
34 *1234:B1 *444:66 0.000410099
35 *1236:A2 *1371:A1 0.000171633
36 *1236:A2 *1426:A1 0.000136958
37 *1236:A2 *444:83 0
38 *1239:B1 *444:66 0.000116579
39 *1249:A1 *444:31 3.14193e-05
40 *1249:A1 *444:46 4.16984e-05
41 *1249:A1 *444:66 1.40309e-05
42 *1249:A1 *444:81 1.68715e-05
43 *1297:A *444:66 7.83659e-05
44 *1324:A *444:10 0.000255522
45 *1335:A0 *444:66 5.71472e-05
46 *1335:A0 *444:81 1.33343e-05
47 *1336:A *444:81 0
48 *1336:A *444:83 0
49 *1353:S *444:31 0.000185118
50 *1444:S *1444:A1 5.54817e-06
51 *1445:A *1444:A1 0
52 *1457:CLK *444:66 7.2754e-05
53 *1479:D *444:10 6.42242e-05
54 *1507:D *444:31 0
55 *1554:A *444:46 4.87953e-05
56 *1566:A *444:31 7.85033e-05
57 *142:71 *444:31 1.90303e-05
58 *158:83 *444:66 0
59 *160:45 *1444:A1 9.13555e-05
60 *163:154 *444:31 0.000262581
61 *167:10 *444:46 3.34366e-05
62 *167:25 *444:46 0.000162832
63 *242:12 *444:31 0
64 *244:66 *444:10 0.000226648
65 *244:83 *444:10 6.47912e-05
66 *245:20 *1296:A1 0.000139913
67 *245:20 *444:46 9.71197e-05
68 *245:20 *444:66 1.52978e-05
69 *254:8 *444:10 0.000131836
70 *254:29 *444:10 0.000672016
71 *258:40 *444:81 0.00010911
72 *288:68 *444:46 0.000170385
73 *288:76 *444:31 1.33343e-05
74 *288:76 *444:46 0.00010096
75 *299:14 *1426:A1 0.000113188
76 *299:22 *444:81 0.000150618
77 *299:22 *444:83 1.02504e-05
78 *309:10 *1444:A1 0
79 *309:10 *444:83 0
80 *330:16 *1296:A1 3.9846e-05
81 *330:16 *444:46 0.000287004
82 *330:38 *1296:A1 5.52302e-05
83 *418:18 *444:10 0.000230475
84 *429:25 *1444:A1 0
85 *438:10 *444:46 3.17067e-05
86 *438:23 *444:46 7.6021e-05
*RES
1 *1626:X *444:10 45.675 
2 *444:10 *444:12 4.5 
3 *444:12 *1353:A1 10.2643 
4 *444:12 *444:31 24.7679 
5 *444:31 *1389:A0 9.3 
6 *444:31 *444:46 20.4286 
7 *444:46 *444:66 25.0536 
8 *444:66 *1335:A1 9.3 
9 *444:66 *444:81 8.76786 
10 *444:81 *444:83 2.55357 
11 *444:83 *1444:A1 21.2107 
12 *444:83 *1371:A1 18.4429 
13 *444:81 *444:103 4.5 
14 *444:103 *1408:A1 9.3 
15 *444:103 *1426:A1 14.2643 
16 *444:46 *1296:A1 10.6571 
*END

*D_NET *445 0.000882177
*CONN
*I *1428:A0 I *D sky130_fd_sc_hd__mux2_1
*I *1601:X O *D sky130_fd_sc_hd__dlygate4sd3_1
*CAP
1 *1428:A0 0.000183865
2 *1601:X 0.000183865
3 *1428:A0 *455:78 0.000267821
4 *1227:B1 *1428:A0 3.28804e-05
5 *165:171 *1428:A0 7.83659e-05
6 *299:46 *1428:A0 9.60939e-05
7 *381:12 *1428:A0 3.92854e-05
8 *422:50 *1428:A0 0
*RES
1 *1601:X *1428:A0 32.0107 
*END

*D_NET *446 0.000376663
*CONN
*I *1371:A0 I *D sky130_fd_sc_hd__mux2_1
*I *1612:X O *D sky130_fd_sc_hd__dlygate4sd3_1
*CAP
1 *1371:A0 0.000135779
2 *1612:X 0.000135779
3 *1371:A1 *1371:A0 5.66971e-05
4 *278:53 *1371:A0 4.84073e-05
*RES
1 *1612:X *1371:A0 20.7786 
*END

*D_NET *447 0.00100879
*CONN
*I *1444:A0 I *D sky130_fd_sc_hd__mux2_1
*I *1619:X O *D sky130_fd_sc_hd__dlygate4sd3_1
*CAP
1 *1444:A0 0.000284364
2 *1619:X 0.000284364
3 *172:24 *1444:A0 4.27842e-06
4 *176:24 *1444:A0 0.000358374
5 *309:10 *1444:A0 7.74135e-05
*RES
1 *1619:X *1444:A0 32.0464 
*END

*D_NET *448 0.000948068
*CONN
*I *1296:A0 I *D sky130_fd_sc_hd__mux2_1
*I *1620:X O *D sky130_fd_sc_hd__dlygate4sd3_1
*CAP
1 *1296:A0 0.000262046
2 *1620:X 0.000262046
3 *1234:B1 *1296:A0 0.000345609
4 *165:171 *1296:A0 7.83659e-05
*RES
1 *1620:X *1296:A0 31.6357 
*END

*D_NET *449 0.000345992
*CONN
*I *1375:A0 I *D sky130_fd_sc_hd__mux2_1
*I *1547:X O *D sky130_fd_sc_hd__dlygate4sd3_1
*CAP
1 *1375:A0 0.000131255
2 *1547:X 0.000131255
3 *1375:A0 *1375:A1 2.12647e-05
4 *1375:A0 *1448:A1 7.25873e-06
5 *1547:A *1375:A0 5.4959e-05
*RES
1 *1547:X *1375:A0 20.7786 
*END

*D_NET *450 0.000402428
*CONN
*I *1450:A0 I *D sky130_fd_sc_hd__mux2_1
*I *1548:X O *D sky130_fd_sc_hd__dlygate4sd3_1
*CAP
1 *1450:A0 7.54588e-05
2 *1548:X 7.54588e-05
3 *1526:CLK *1450:A0 5.50052e-05
4 *1548:A *1450:A0 0.000110535
5 *176:45 *1450:A0 8.59701e-05
*RES
1 *1548:X *1450:A0 20.7786 
*END

*D_NET *451 0.000907221
*CONN
*I *1331:A0 I *D sky130_fd_sc_hd__mux2_1
*I *1549:X O *D sky130_fd_sc_hd__dlygate4sd3_1
*CAP
1 *1331:A0 0.000282306
2 *1549:X 0.000282306
3 *1257:B1 *1331:A0 7.49387e-06
4 *1331:A1 *1331:A0 5.49489e-05
5 *258:56 *1331:A0 1.83136e-05
6 *258:60 *1331:A0 0.000261851
*RES
1 *1549:X *1331:A0 32.4214 
*END

*D_NET *452 0.000933891
*CONN
*I *1369:A0 I *D sky130_fd_sc_hd__mux2_1
*I *1550:X O *D sky130_fd_sc_hd__dlygate4sd3_1
*CAP
1 *1369:A0 0.000267452
2 *1550:X 0.000267452
3 *1247:C1 *1369:A0 0.000264691
4 *1365:S *1369:A0 1.0484e-05
5 *278:75 *1369:A0 4.58194e-05
6 *355:10 *1369:A0 7.79937e-05
*RES
1 *1550:X *1369:A0 32.4214 
*END

*D_NET *453 0.000481722
*CONN
*I *1294:A0 I *D sky130_fd_sc_hd__mux2_1
*I *1551:X O *D sky130_fd_sc_hd__dlygate4sd3_1
*CAP
1 *1294:A0 4.65561e-05
2 *1551:X 4.65561e-05
3 *1551:A *1294:A0 5.49544e-05
4 *245:85 *1294:A0 7.83596e-05
5 *245:102 *1294:A0 2.24718e-05
6 *438:96 *1294:A0 0.000232824
*RES
1 *1551:X *1294:A0 21.3143 
*END

*D_NET *454 0.000556613
*CONN
*I *1298:A0 I *D sky130_fd_sc_hd__mux2_1
*I *1552:X O *D sky130_fd_sc_hd__dlygate4sd3_1
*CAP
1 *1298:A0 0.000131315
2 *1552:X 0.000131315
3 *1230:B2 *1298:A0 7.74068e-05
4 *158:135 *1298:A0 0.000216575
*RES
1 *1552:X *1298:A0 29.9929 
*END

*D_NET *455 0.0131813
*CONN
*I *1391:A0 I *D sky130_fd_sc_hd__mux2_1
*I *1428:A1 I *D sky130_fd_sc_hd__mux2_1
*I *1373:A1 I *D sky130_fd_sc_hd__mux2_1
*I *1446:A1 I *D sky130_fd_sc_hd__mux2_1
*I *1337:A1 I *D sky130_fd_sc_hd__mux2_1
*I *1298:A1 I *D sky130_fd_sc_hd__mux2_1
*I *1410:A1 I *D sky130_fd_sc_hd__mux2_1
*I *1355:A1 I *D sky130_fd_sc_hd__mux2_1
*I *1627:X O *D sky130_fd_sc_hd__clkbuf_2
*CAP
1 *1391:A0 0
2 *1428:A1 0
3 *1373:A1 0.000250197
4 *1446:A1 0.000185156
5 *1337:A1 0
6 *1298:A1 0.000355786
7 *1410:A1 0.00016155
8 *1355:A1 0
9 *1627:X 0.000569429
10 *455:78 0.000716761
11 *455:74 0.000423058
12 *455:50 0.000505672
13 *455:48 0.00114448
14 *455:33 0.00147756
15 *455:25 0.000914326
16 *455:10 0.00102069
17 *455:10 *1355:A0 1.00887e-05
18 *455:25 *1355:A0 0.000151789
19 *455:25 *1391:A1 1.04232e-05
20 *455:33 *1391:A1 0
21 *455:50 *1337:A0 0.000101341
22 *1224:A1 *455:48 1.02821e-05
23 *1224:B2 *455:33 0.000149489
24 *1224:B2 *455:48 0.000122159
25 *1228:A2 *1446:A1 1.19813e-05
26 *1228:B2 *1446:A1 2.85234e-05
27 *1229:C1 *455:78 0.000163974
28 *1230:A1 *1298:A1 0
29 *1230:A1 *455:50 0
30 *1230:B1 *1298:A1 2.38501e-05
31 *1230:B2 *1298:A1 0.00026023
32 *1284:A *1410:A1 3.52572e-05
33 *1391:S *455:33 1.19309e-05
34 *1392:A *455:25 5.65955e-05
35 *1404:S *1410:A1 0
36 *1428:A0 *455:78 0.000267821
37 *1428:S *455:74 5.33005e-05
38 *1481:D *1298:A1 2.51343e-06
39 *1484:CLK *1410:A1 0
40 *1484:D *455:48 1.64343e-05
41 *1492:D *455:25 2.23592e-05
42 *1508:D *455:25 1.58163e-05
43 *1615:A *455:10 0.000203685
44 *1615:A *455:25 7.63104e-05
45 *163:45 *455:10 0
46 *165:171 *1298:A1 0.000149793
47 *165:171 *455:50 0.000231692
48 *165:171 *455:74 0.000330455
49 *165:171 *455:78 1.7606e-05
50 *203:12 *455:10 0
51 *203:12 *455:33 0
52 *242:12 *1410:A1 0.000257796
53 *242:12 *455:33 0
54 *254:82 *455:74 2.77143e-05
55 *258:85 *455:50 0
56 *299:46 *455:74 0.000137983
57 *334:21 *1410:A1 0
58 *334:104 *1373:A1 0.000402437
59 *349:8 *455:33 1.00073e-05
60 *357:12 *1373:A1 5.32071e-05
61 *381:12 *455:78 1.46624e-05
62 *421:10 *455:25 5.33005e-05
63 *422:50 *455:48 0.000105471
64 *422:50 *455:50 5.66157e-05
65 *422:50 *455:74 0.000339705
66 *437:122 *1373:A1 0.000208802
67 *437:122 *455:78 0.000735145
68 *438:42 *455:48 5.52302e-05
69 *438:75 *455:48 0.000462901
*RES
1 *1627:X *455:10 22.9429 
2 *455:10 *1355:A1 13.8 
3 *455:10 *455:25 13.1607 
4 *455:25 *455:33 15.4643 
5 *455:33 *1410:A1 22.3714 
6 *455:33 *455:48 15.7143 
7 *455:48 *455:50 3.16071 
8 *455:50 *1298:A1 19.1571 
9 *455:50 *1337:A1 13.8 
10 *455:48 *455:74 10.2321 
11 *455:74 *455:78 14.0357 
12 *455:78 *1446:A1 16.8357 
13 *455:78 *1373:A1 20.4786 
14 *455:74 *1428:A1 9.3 
15 *455:25 *1391:A0 9.3 
*END

*D_NET *456 0.00103409
*CONN
*I *1448:A0 I *D sky130_fd_sc_hd__mux2_1
*I *1553:X O *D sky130_fd_sc_hd__dlygate4sd3_1
*CAP
1 *1448:A0 0.000384415
2 *1553:X 0.000384415
3 *1501:D *1448:A0 0
4 *1533:D *1448:A0 0
5 *160:97 *1448:A0 7.6644e-05
6 *165:63 *1448:A0 0.000188612
7 *172:26 *1448:A0 0
8 *268:86 *1448:A0 0
*RES
1 *1553:X *1448:A0 34.2786 
*END

*D_NET *457 0.000356437
*CONN
*I *1389:A1 I *D sky130_fd_sc_hd__mux2_1
*I *1554:X O *D sky130_fd_sc_hd__dlygate4sd3_1
*CAP
1 *1389:A1 8.53972e-05
2 *1554:X 8.53972e-05
3 *444:46 *1389:A1 0.000185643
*RES
1 *1554:X *1389:A1 20.3679 
*END

*D_NET *458 0.000695376
*CONN
*I *1440:A0 I *D sky130_fd_sc_hd__mux2_1
*I *1555:X O *D sky130_fd_sc_hd__dlygate4sd3_1
*CAP
1 *1440:A0 0.000325662
2 *1555:X 0.000325662
3 *1440:A0 *1442:A0 0
4 *1373:S *1440:A0 1.67561e-05
5 *386:12 *1440:A0 0
6 *425:67 *1440:A0 2.72967e-05
*RES
1 *1555:X *1440:A0 32.9214 
*END

*D_NET *459 0.000679933
*CONN
*I *1373:A0 I *D sky130_fd_sc_hd__mux2_1
*I *1556:X O *D sky130_fd_sc_hd__dlygate4sd3_1
*CAP
1 *1373:A0 0.000215251
2 *1556:X 0.000215251
3 *1228:B1 *1373:A0 0.000227793
4 *1497:CLK *1373:A0 2.16394e-05
*RES
1 *1556:X *1373:A0 30.8143 
*END

*D_NET *460 0.000453121
*CONN
*I *1452:A0 I *D sky130_fd_sc_hd__mux2_1
*I *1558:X O *D sky130_fd_sc_hd__dlygate4sd3_1
*CAP
1 *1452:A0 4.48905e-05
2 *1558:X 4.48905e-05
3 *1452:A0 *1379:A1 5.49544e-05
4 *1452:A0 *488:108 0.000185318
5 *319:27 *1452:A0 7.57394e-05
6 *319:38 *1452:A0 4.73286e-05
*RES
1 *1558:X *1452:A0 20.7786 
*END

*D_NET *461 0.000599071
*CONN
*I *1422:A0 I *D sky130_fd_sc_hd__mux2_1
*I *1559:X O *D sky130_fd_sc_hd__dlygate4sd3_1
*CAP
1 *1422:A0 0.00018006
2 *1559:X 0.00018006
3 *1229:A2 *1422:A0 9.41642e-05
4 *1257:B2 *1422:A0 0
5 *378:14 *1422:A0 0.000144787
*RES
1 *1559:X *1422:A0 30.4929 
*END

*D_NET *462 0.000798895
*CONN
*I *1367:A0 I *D sky130_fd_sc_hd__mux2_1
*I *1560:X O *D sky130_fd_sc_hd__dlygate4sd3_1
*CAP
1 *1367:A0 0.00028421
2 *1560:X 0.00028421
3 *1256:C1 *1367:A0 0
4 *1440:A1 *1367:A0 0
5 *278:61 *1367:A0 0.000230475
*RES
1 *1560:X *1367:A0 32.9571 
*END

*D_NET *463 0.000744007
*CONN
*I *1446:A0 I *D sky130_fd_sc_hd__mux2_1
*I *1561:X O *D sky130_fd_sc_hd__dlygate4sd3_1
*CAP
1 *1446:A0 0.000286332
2 *1561:X 0.000286332
3 *1500:D *1446:A0 0.000171342
4 *422:14 *1446:A0 0
*RES
1 *1561:X *1446:A0 32.4214 
*END

*D_NET *464 0.0017215
*CONN
*I *1430:A0 I *D sky130_fd_sc_hd__mux2_1
*I *1562:X O *D sky130_fd_sc_hd__dlygate4sd3_1
*CAP
1 *1430:A0 0.000423822
2 *1562:X 0.000423822
3 *1430:A0 *466:43 1.40034e-05
4 *1218:A2 *1430:A0 5.52302e-05
5 *165:120 *1430:A0 0.000224583
6 *165:139 *1430:A0 5.33005e-05
7 *166:120 *1430:A0 0.000270243
8 *299:109 *1430:A0 7.4826e-05
9 *332:86 *1430:A0 0.000126439
10 *425:22 *1430:A0 5.52302e-05
*RES
1 *1562:X *1430:A0 35.4214 
*END

*D_NET *465 0.00107343
*CONN
*I *1434:A0 I *D sky130_fd_sc_hd__mux2_1
*I *1563:X O *D sky130_fd_sc_hd__dlygate4sd3_1
*CAP
1 *1434:A0 0.000191552
2 *1563:X 0.000191552
3 *1434:A0 *488:26 4.14279e-05
4 *1434:A0 *488:32 5.71472e-05
5 *1203:B1 *1434:A0 0.000188586
6 *1203:B2 *1434:A0 0.000375255
7 *1212:A2 *1434:A0 0
8 *166:78 *1434:A0 0
9 *384:10 *1434:A0 2.79092e-05
*RES
1 *1563:X *1434:A0 33.7429 
*END

*D_NET *466 0.0119093
*CONN
*I *1339:A1 I *D sky130_fd_sc_hd__mux2_1
*I *1412:A1 I *D sky130_fd_sc_hd__mux2_1
*I *1430:A1 I *D sky130_fd_sc_hd__mux2_1
*I *1393:A0 I *D sky130_fd_sc_hd__mux2_1
*I *1357:A1 I *D sky130_fd_sc_hd__mux2_1
*I *1375:A1 I *D sky130_fd_sc_hd__mux2_1
*I *1448:A1 I *D sky130_fd_sc_hd__mux2_1
*I *1300:A1 I *D sky130_fd_sc_hd__mux2_1
*I *1628:X O *D sky130_fd_sc_hd__clkbuf_2
*CAP
1 *1339:A1 0
2 *1412:A1 2.90506e-05
3 *1430:A1 0
4 *1393:A0 0
5 *1357:A1 0.000134443
6 *1375:A1 2.9192e-05
7 *1448:A1 0.000398182
8 *1300:A1 0.00040575
9 *1628:X 0.000761124
10 *466:73 0.000284356
11 *466:51 0.000526372
12 *466:47 0.000484293
13 *466:43 0.000624781
14 *466:35 0.000918139
15 *466:18 0.00127208
16 *466:10 0.00112776
17 *466:35 *1258:A0 0
18 *466:35 *1412:A0 1.30594e-05
19 *1216:B1 *466:35 1.58357e-05
20 *1218:A2 *466:35 9.73818e-05
21 *1218:A2 *466:43 4.74645e-05
22 *1220:B1 *466:43 6.70344e-05
23 *1258:A1 *466:18 1.69458e-05
24 *1258:A1 *466:35 0
25 *1258:S *466:35 0.000220291
26 *1259:A *466:35 0.000110779
27 *1339:S *466:10 0
28 *1357:S *1357:A1 0.000142152
29 *1375:A0 *1375:A1 2.12647e-05
30 *1375:A0 *1448:A1 7.25873e-06
31 *1376:A *1448:A1 0.000261347
32 *1412:S *466:43 0.000185124
33 *1413:A *1412:A1 5.30637e-06
34 *1413:A *466:35 0.000332688
35 *1430:A0 *466:43 1.40034e-05
36 *1448:S *1448:A1 8.97505e-05
37 *1465:CLK *1300:A1 0.000520895
38 *1465:D *1300:A1 1.21258e-05
39 *1465:D *466:18 2.67489e-05
40 *165:82 *466:47 0.000575092
41 *165:120 *466:43 0.00018077
42 *165:120 *466:47 8.76257e-05
43 *165:139 *466:43 4.08637e-05
44 *172:53 *1357:A1 0.000655282
45 *175:63 *466:51 0.000200506
46 *175:63 *466:73 0.000168939
47 *175:74 *466:73 0.000211927
48 *176:64 *466:51 0.000105561
49 *176:64 *466:73 8.89289e-05
50 *176:77 *466:73 0.000117388
51 *299:109 *466:35 0
52 *425:22 *1357:A1 0.000273485
*RES
1 *1628:X *466:10 24.1214 
2 *466:10 *466:18 9.57143 
3 *466:18 *1300:A1 14.7643 
4 *466:18 *466:35 20.4107 
5 *466:35 *466:43 7.57143 
6 *466:43 *466:47 10.7857 
7 *466:47 *466:51 7.05357 
8 *466:51 *1448:A1 16.4429 
9 *466:51 *1375:A1 9.83571 
10 *466:47 *466:73 9.48214 
11 *466:73 *1357:A1 15.5857 
12 *466:73 *1393:A0 9.3 
13 *466:43 *1430:A1 9.3 
14 *466:35 *1412:A1 9.83571 
15 *466:10 *1339:A1 13.8 
*END

*D_NET *467 0.000824679
*CONN
*I *1337:A0 I *D sky130_fd_sc_hd__mux2_1
*I *1564:X O *D sky130_fd_sc_hd__dlygate4sd3_1
*CAP
1 *1337:A0 0.000260019
2 *1564:X 0.000260019
3 *1230:A1 *1337:A0 0
4 *158:135 *1337:A0 2.12559e-05
5 *258:85 *1337:A0 0
6 *341:6 *1337:A0 5.60962e-05
7 *438:75 *1337:A0 0.000125947
8 *455:50 *1337:A0 0.000101341
*RES
1 *1564:X *1337:A0 32.8143 
*END

*D_NET *468 0.000248252
*CONN
*I *1387:A1 I *D sky130_fd_sc_hd__mux2_1
*I *1565:X O *D sky130_fd_sc_hd__dlygate4sd3_1
*CAP
1 *1387:A1 0.00010334
2 *1565:X 0.00010334
3 *288:111 *1387:A1 2.83425e-05
4 *363:14 *1387:A1 1.32293e-05
*RES
1 *1565:X *1387:A1 20.3679 
*END

*D_NET *469 0.000366787
*CONN
*I *1353:A0 I *D sky130_fd_sc_hd__mux2_1
*I *1566:X O *D sky130_fd_sc_hd__dlygate4sd3_1
*CAP
1 *1353:A0 8.49564e-05
2 *1566:X 8.49564e-05
3 *1353:A1 *1353:A0 5.66971e-05
4 *1353:S *1353:A0 9.99853e-05
5 *444:31 *1353:A0 4.01923e-05
*RES
1 *1566:X *1353:A0 20.7786 
*END

*D_NET *470 0.000908283
*CONN
*I *1347:A0 I *D sky130_fd_sc_hd__mux2_1
*I *1567:X O *D sky130_fd_sc_hd__dlygate4sd3_1
*CAP
1 *1347:A0 0.000294527
2 *1567:X 0.000294527
3 *1260:A1 *1347:A0 0.000132487
4 *1266:A2 *1347:A0 0
5 *1347:S *1347:A0 2.79421e-05
6 *1383:A0 *1347:A0 5.33005e-05
7 *1597:A *1347:A0 3.92854e-05
8 *401:56 *1347:A0 6.62144e-05
*RES
1 *1567:X *1347:A0 33.7429 
*END

*D_NET *471 0.00102341
*CONN
*I *1290:A0 I *D sky130_fd_sc_hd__mux2_1
*I *1569:X O *D sky130_fd_sc_hd__dlygate4sd3_1
*CAP
1 *1290:A0 0.000206089
2 *1569:X 0.000206089
3 *158:158 *1290:A0 0.000160419
4 *165:90 *1290:A0 0.00026456
5 *166:120 *1290:A0 0.000136727
6 *335:106 *1290:A0 4.953e-05
*RES
1 *1569:X *1290:A0 32.4214 
*END

*D_NET *472 0.000819481
*CONN
*I *1300:A0 I *D sky130_fd_sc_hd__mux2_1
*I *1570:X O *D sky130_fd_sc_hd__dlygate4sd3_1
*CAP
1 *1300:A0 0.000246244
2 *1570:X 0.000246244
3 *1602:A *1300:A0 2.89016e-05
4 *166:120 *1300:A0 0.000148189
5 *309:54 *1300:A0 0.000149904
*RES
1 *1570:X *1300:A0 31.725 
*END

*D_NET *473 0.000417267
*CONN
*I *1391:A1 I *D sky130_fd_sc_hd__mux2_1
*I *1571:X O *D sky130_fd_sc_hd__dlygate4sd3_1
*CAP
1 *1391:A1 0.000182626
2 *1571:X 0.000182626
3 *242:12 *1391:A1 4.15914e-05
4 *455:25 *1391:A1 1.04232e-05
5 *455:33 *1391:A1 0
*RES
1 *1571:X *1391:A1 30.85 
*END

*D_NET *474 0.000504458
*CONN
*I *1357:A0 I *D sky130_fd_sc_hd__mux2_1
*I *1572:X O *D sky130_fd_sc_hd__dlygate4sd3_1
*CAP
1 *1357:A0 0.000232997
2 *1572:X 0.000232997
3 *1553:A *1357:A0 3.08664e-05
4 *160:97 *1357:A0 7.59753e-06
*RES
1 *1572:X *1357:A0 30.9036 
*END

*D_NET *475 0.000528059
*CONN
*I *1361:A0 I *D sky130_fd_sc_hd__mux2_1
*I *1573:X O *D sky130_fd_sc_hd__dlygate4sd3_1
*CAP
1 *1361:A0 0.000203231
2 *1573:X 0.000203231
3 *168:38 *1361:A0 0.000121598
*RES
1 *1573:X *1361:A0 21.6357 
*END

*D_NET *476 0.000242859
*CONN
*I *1349:A0 I *D sky130_fd_sc_hd__mux2_1
*I *1574:X O *D sky130_fd_sc_hd__dlygate4sd3_1
*CAP
1 *1349:A0 9.18666e-05
2 *1574:X 9.18666e-05
3 *1349:A1 *1349:A0 7.43578e-06
4 *1349:S *1349:A0 1.32552e-05
5 *1355:S *1349:A0 3.84349e-05
*RES
1 *1574:X *1349:A0 29.1714 
*END

*D_NET *477 0.0146311
*CONN
*I *1377:A1 I *D sky130_fd_sc_hd__mux2_1
*I *1450:A1 I *D sky130_fd_sc_hd__mux2_1
*I *1432:A1 I *D sky130_fd_sc_hd__mux2_1
*I *1414:A1 I *D sky130_fd_sc_hd__mux2_1
*I *1341:A1 I *D sky130_fd_sc_hd__mux2_1
*I *1302:A1 I *D sky130_fd_sc_hd__mux2_1
*I *1359:A1 I *D sky130_fd_sc_hd__mux2_1
*I *1395:A0 I *D sky130_fd_sc_hd__mux2_1
*I *1629:X O *D sky130_fd_sc_hd__clkbuf_2
*CAP
1 *1377:A1 0
2 *1450:A1 0.000496363
3 *1432:A1 0
4 *1414:A1 0
5 *1341:A1 0
6 *1302:A1 0
7 *1359:A1 3.42005e-05
8 *1395:A0 0.000692608
9 *1629:X 0.000812122
10 *477:100 0.000915036
11 *477:83 0.00119115
12 *477:66 0.00137609
13 *477:26 0.00147904
14 *477:22 0.00113672
15 *477:14 0.000415945
16 *477:12 0.00144719
17 *1395:A0 *1395:A1 0.000130294
18 *477:12 *1341:A0 0.000139907
19 *477:14 *1341:A0 5.49489e-05
20 *477:22 *1341:A0 5.62144e-05
21 *477:22 *488:16 7.65336e-06
22 *477:66 *488:16 0
23 dout[6] *477:12 0.000166735
24 *1198:A1 *477:66 0
25 *1202:A2 *477:83 7.58841e-05
26 *1204:A1 *1395:A0 0.000156769
27 *1206:A1 *1395:A0 0.00016885
28 *1206:A2 *1395:A0 3.76327e-05
29 *1207:A2 *477:26 3.09896e-05
30 *1210:A1 *1450:A1 0.000126755
31 *1211:C1 *477:83 1.24368e-05
32 *1211:C1 *477:100 5.46383e-06
33 *1212:A1 *477:12 9.31893e-05
34 *1212:A1 *477:22 0.000153176
35 *1213:A1 *477:22 2.16394e-05
36 *1302:S *477:26 0.000128031
37 *1303:A *477:26 0.000527957
38 *1359:S *1359:A1 1.02301e-05
39 *1359:S *1395:A0 1.4796e-05
40 *1359:S *477:26 1.84776e-05
41 *1378:A *1450:A1 0.000166676
42 *1395:S *1395:A0 9.90367e-05
43 *1414:A0 *477:66 5.49489e-05
44 *1416:S *477:66 2.36643e-05
45 *1416:S *477:83 3.18747e-05
46 *1432:A0 *477:83 6.92966e-06
47 *1432:A0 *477:100 4.86299e-05
48 *1432:S *477:83 1.62025e-05
49 *1432:S *477:100 7.25873e-06
50 *1433:A *477:100 7.41422e-05
51 *1434:S *477:83 2.48421e-05
52 *1519:CLK *477:66 0
53 *1581:A *1395:A0 6.05161e-06
54 *1587:A *477:12 2.14658e-05
55 *1589:A *477:12 6.45442e-05
56 *1641:A *477:12 3.01126e-05
57 *1642:A *1395:A0 0
58 *1644:A *1395:A0 7.06479e-05
59 *166:76 *477:83 0.000139338
60 *254:129 *477:66 0.00103541
61 *268:86 *1450:A1 0.00021303
62 *299:135 *477:83 2.32641e-05
63 *331:46 *1395:A0 0
64 *331:133 *477:22 5.42961e-05
65 *413:12 *477:12 0.000249652
66 *423:8 *477:12 3.45488e-05
*RES
1 *1629:X *477:12 35.1929 
2 *477:12 *477:14 0.535714 
3 *477:14 *477:22 14.3571 
4 *477:22 *477:26 10.7143 
5 *477:26 *1395:A0 32.2643 
6 *477:26 *1359:A1 10.0321 
7 *477:22 *1302:A1 9.3 
8 *477:14 *1341:A1 9.3 
9 *477:12 *477:66 23.4286 
10 *477:66 *1414:A1 9.3 
11 *477:66 *477:83 18.9286 
12 *477:83 *1432:A1 9.3 
13 *477:83 *477:100 8.125 
14 *477:100 *1450:A1 27.7464 
15 *477:100 *1377:A1 9.3 
*END

*D_NET *478 0.000436067
*CONN
*I *1438:A0 I *D sky130_fd_sc_hd__mux2_1
*I *1575:X O *D sky130_fd_sc_hd__dlygate4sd3_1
*CAP
1 *1438:A0 0.000104897
2 *1575:X 0.000104897
3 *1575:A *1438:A0 0.000226272
*RES
1 *1575:X *1438:A0 20.7786 
*END

*D_NET *479 0.000787415
*CONN
*I *1420:A0 I *D sky130_fd_sc_hd__mux2_1
*I *1576:X O *D sky130_fd_sc_hd__dlygate4sd3_1
*CAP
1 *1420:A0 0.000283519
2 *1576:X 0.000283519
3 *1245:B1 *1420:A0 2.28499e-05
4 *1263:B1 *1420:A0 4.60554e-05
5 *1265:B1 *1420:A0 0
6 *1266:B2 *1420:A0 0
7 *1421:A *1420:A0 0
8 *377:10 *1420:A0 5.24274e-05
9 *401:44 *1420:A0 9.90431e-05
*RES
1 *1576:X *1420:A0 32.4214 
*END

*D_NET *480 0.000434002
*CONN
*I *1351:A0 I *D sky130_fd_sc_hd__mux2_1
*I *1577:X O *D sky130_fd_sc_hd__dlygate4sd3_1
*CAP
1 *1351:A0 6.3513e-05
2 *1577:X 6.3513e-05
3 *1351:S *1351:A0 5.33334e-05
4 *219:12 *1351:A0 2.61099e-05
5 *258:85 *1351:A0 0.000227532
*RES
1 *1577:X *1351:A0 20.7786 
*END

*D_NET *481 0.00135662
*CONN
*I *1379:A0 I *D sky130_fd_sc_hd__mux2_1
*I *1578:X O *D sky130_fd_sc_hd__dlygate4sd3_1
*CAP
1 *1379:A0 0.000360484
2 *1578:X 0.000360484
3 *1203:B1 *1379:A0 0.000159855
4 *1207:A2 *1379:A0 1.59373e-05
5 *1540:A *1379:A0 0.000163948
6 *1541:A *1379:A0 5.33005e-05
7 *278:20 *1379:A0 9.77423e-05
8 *278:31 *1379:A0 1.54142e-05
9 *319:27 *1379:A0 9.77423e-05
10 *328:36 *1379:A0 3.17148e-05
*RES
1 *1578:X *1379:A0 34.9929 
*END

*D_NET *482 0.000379027
*CONN
*I *1385:A1 I *D sky130_fd_sc_hd__mux2_1
*I *1580:X O *D sky130_fd_sc_hd__dlygate4sd3_1
*CAP
1 *1385:A1 5.76918e-05
2 *1580:X 5.76918e-05
3 *1580:A *1385:A1 5.33005e-05
4 *288:100 *1385:A1 2.95726e-05
5 *422:66 *1385:A1 0.00018077
*RES
1 *1580:X *1385:A1 20.3679 
*END

*D_NET *483 0.000983347
*CONN
*I *1359:A0 I *D sky130_fd_sc_hd__mux2_1
*I *1581:X O *D sky130_fd_sc_hd__dlygate4sd3_1
*CAP
1 *1359:A0 0.000295362
2 *1581:X 0.000295362
3 *1207:A2 *1359:A0 3.85363e-05
4 *1212:B1 *1359:A0 0
5 *1302:S *1359:A0 0.000354086
*RES
1 *1581:X *1359:A0 32.0464 
*END

*D_NET *484 0.00156082
*CONN
*I *1424:A0 I *D sky130_fd_sc_hd__mux2_1
*I *1582:X O *D sky130_fd_sc_hd__dlygate4sd3_1
*CAP
1 *1424:A0 0.000480081
2 *1582:X 0.000480081
3 *1407:A *1424:A0 0
4 *1514:D *1424:A0 0.000225342
5 *1638:A *1424:A0 0.000375313
*RES
1 *1582:X *1424:A0 36.3143 
*END

*D_NET *485 0.00120606
*CONN
*I *1355:A0 I *D sky130_fd_sc_hd__mux2_1
*I *1583:X O *D sky130_fd_sc_hd__dlygate4sd3_1
*CAP
1 *1355:A0 0.000448373
2 *1583:X 0.000448373
3 *1356:A *1355:A0 4.04221e-05
4 *1492:D *1355:A0 3.92854e-05
5 *1615:A *1355:A0 1.27784e-05
6 *349:8 *1355:A0 5.49544e-05
7 *455:10 *1355:A0 1.00887e-05
8 *455:25 *1355:A0 0.000151789
*RES
1 *1583:X *1355:A0 34.475 
*END

*D_NET *486 0.000770553
*CONN
*I *1343:A0 I *D sky130_fd_sc_hd__mux2_1
*I *1584:X O *D sky130_fd_sc_hd__dlygate4sd3_1
*CAP
1 *1343:A0 0.000151488
2 *1584:X 0.000151488
3 *1207:A2 *1343:A0 4.48206e-05
4 *1212:A2 *1343:A0 0
5 *1212:B2 *1343:A0 0
6 *1341:S *1343:A0 9.31893e-05
7 *1343:S *1343:A0 0
8 *1581:A *1343:A0 0.000273269
9 *258:14 *1343:A0 5.62995e-05
*RES
1 *1584:X *1343:A0 32.2607 
*END

*D_NET *487 0.000849482
*CONN
*I *1426:A0 I *D sky130_fd_sc_hd__mux2_1
*I *1585:X O *D sky130_fd_sc_hd__dlygate4sd3_1
*CAP
1 *1426:A0 0.000196951
2 *1585:X 0.000196951
3 *1236:A2 *1426:A0 0.000314139
4 *1238:C1 *1426:A0 8.00806e-05
5 *160:97 *1426:A0 1.97695e-05
6 *166:10 *1426:A0 4.15914e-05
*RES
1 *1585:X *1426:A0 32.0643 
*END

*D_NET *488 0.0143778
*CONN
*I *1416:A1 I *D sky130_fd_sc_hd__mux2_1
*I *1434:A1 I *D sky130_fd_sc_hd__mux2_1
*I *1452:A1 I *D sky130_fd_sc_hd__mux2_1
*I *1379:A1 I *D sky130_fd_sc_hd__mux2_1
*I *1304:A1 I *D sky130_fd_sc_hd__mux2_1
*I *1397:A0 I *D sky130_fd_sc_hd__mux2_1
*I *1361:A1 I *D sky130_fd_sc_hd__mux2_1
*I *1343:A1 I *D sky130_fd_sc_hd__mux2_1
*I *1630:X O *D sky130_fd_sc_hd__clkbuf_2
*CAP
1 *1416:A1 0.000114711
2 *1434:A1 0
3 *1452:A1 0
4 *1379:A1 0.000220454
5 *1304:A1 0
6 *1397:A0 0.000586464
7 *1361:A1 6.02818e-05
8 *1343:A1 6.44563e-05
9 *1630:X 0.0010137
10 *488:108 0.000706906
11 *488:82 0.00106438
12 *488:61 0.00074518
13 *488:51 0.000971101
14 *488:32 0.000577523
15 *488:26 0.000777252
16 *488:16 0.00167027
17 *1397:A0 *1304:A0 5.65955e-05
18 *1397:A0 *1397:A1 0
19 *488:82 *1304:A0 0.000184297
20 used[1] *1397:A0 4.1331e-06
21 *1194:A1 *1361:A1 2.04825e-05
22 *1194:A1 *488:61 1.27625e-05
23 *1194:A1 *488:82 0.000186655
24 *1194:B1 *488:61 0.000100831
25 *1201:A1 *488:32 0
26 *1201:A1 *488:108 0
27 *1203:A2 *488:26 6.48285e-05
28 *1203:B1 *488:26 1.40034e-05
29 *1203:B1 *488:32 0.000119203
30 *1203:B2 *488:26 0.000261346
31 *1204:A1 *1343:A1 2.39779e-05
32 *1207:A2 *1343:A1 9.47456e-05
33 *1207:A2 *488:32 4.07643e-05
34 *1207:A2 *488:51 0.000431874
35 *1207:A2 *488:61 0.000391494
36 *1213:S *488:16 1.33248e-05
37 *1214:A *488:16 0.000249295
38 *1305:A *1397:A0 0.000121307
39 *1344:A *1343:A1 0.000128154
40 *1344:A *488:32 0.00018459
41 *1416:A0 *1416:A1 5.60962e-05
42 *1434:A0 *488:26 4.14279e-05
43 *1434:A0 *488:32 5.71472e-05
44 *1435:A *488:32 5.52302e-05
45 *1452:A0 *1379:A1 5.49544e-05
46 *1452:A0 *488:108 0.000185318
47 *1461:CLK *1397:A0 0
48 *1470:D *488:16 0.000101178
49 *1487:CLK *488:51 5.52238e-05
50 *1487:D *488:51 0.000236685
51 *1519:CLK *488:16 0.000125731
52 *1540:A *1379:A1 1.62621e-05
53 *1578:A *488:51 5.52238e-05
54 *1578:A *488:108 4.78056e-05
55 *1591:A *488:82 1.60322e-05
56 *1644:A *488:16 7.10746e-05
57 *1652:A *1397:A0 0
58 *167:142 *488:51 7.99946e-05
59 *167:142 *488:61 0.000323078
60 *168:38 *1361:A1 5.52302e-05
61 *245:132 *1397:A0 9.35794e-06
62 *254:129 *488:16 0
63 *258:14 *1361:A1 5.33005e-05
64 *268:86 *488:108 0.000477998
65 *288:36 *1397:A0 0.00012401
66 *319:27 *1379:A1 8.76126e-05
67 *319:38 *488:108 5.88102e-05
68 *328:36 *1379:A1 1.59347e-05
69 *331:133 *488:16 0.000567705
70 *332:10 *488:108 3.92757e-05
71 *392:8 *1379:A1 8.25843e-06
72 *400:10 *488:82 1.6806e-05
73 *477:22 *488:16 7.65336e-06
74 *477:66 *488:16 0
*RES
1 *1630:X *488:16 38.7643 
2 *488:16 *488:26 9.53571 
3 *488:26 *488:32 9.94643 
4 *488:32 *1343:A1 16.05 
5 *488:32 *488:51 12.5893 
6 *488:51 *488:61 10.8661 
7 *488:61 *1361:A1 15.1482 
8 *488:61 *488:82 12.8482 
9 *488:82 *1397:A0 29.0857 
10 *488:82 *1304:A1 9.3 
11 *488:51 *488:108 18.6071 
12 *488:108 *1379:A1 21.6036 
13 *488:108 *1452:A1 9.3 
14 *488:26 *1434:A1 9.3 
15 *488:16 *1416:A1 10.6571 
*END

*D_NET *489 0.000682041
*CONN
*I *1442:A0 I *D sky130_fd_sc_hd__mux2_1
*I *1586:X O *D sky130_fd_sc_hd__dlygate4sd3_1
*CAP
1 *1442:A0 0.00028532
2 *1586:X 0.00028532
3 *1440:A0 *1442:A0 0
4 *1442:A1 *1442:A0 3.11088e-05
5 *1443:A *1442:A0 0
6 *1586:A *1442:A0 2.79092e-05
7 *319:104 *1442:A0 5.23822e-05
*RES
1 *1586:X *1442:A0 32.9214 
*END

*D_NET *490 0.000570096
*CONN
*I *1341:A0 I *D sky130_fd_sc_hd__mux2_1
*I *1587:X O *D sky130_fd_sc_hd__dlygate4sd3_1
*CAP
1 *1341:A0 4.66085e-05
2 *1587:X 4.66085e-05
3 *1212:A1 *1341:A0 0.000225809
4 *477:12 *1341:A0 0.000139907
5 *477:14 *1341:A0 5.49489e-05
6 *477:22 *1341:A0 5.62144e-05
*RES
1 *1587:X *1341:A0 20.7786 
*END

*D_NET *491 0.000672332
*CONN
*I *1292:A0 I *D sky130_fd_sc_hd__mux2_1
*I *1588:X O *D sky130_fd_sc_hd__dlygate4sd3_1
*CAP
1 *1292:A0 0.000199002
2 *1588:X 0.000199002
3 *142:132 *1292:A0 3.8361e-06
4 *328:83 *1292:A0 0.000197834
5 *422:54 *1292:A0 5.52238e-05
6 *422:66 *1292:A0 1.74352e-05
*RES
1 *1588:X *1292:A0 31.1 
*END

*D_NET *492 0.00127717
*CONN
*I *1302:A0 I *D sky130_fd_sc_hd__mux2_1
*I *1589:X O *D sky130_fd_sc_hd__dlygate4sd3_1
*CAP
1 *1302:A0 0.000193923
2 *1589:X 0.000193923
3 *1213:A0 *1302:A0 0.000182677
4 *1213:A1 *1302:A0 0.00043954
5 *1213:S *1302:A0 6.85372e-05
6 *1214:A *1302:A0 6.93704e-06
7 *1302:S *1302:A0 9.74665e-05
8 *331:133 *1302:A0 9.41642e-05
*RES
1 *1589:X *1302:A0 24.475 
*END

*D_NET *493 0.000447864
*CONN
*I *1304:A0 I *D sky130_fd_sc_hd__mux2_1
*I *1591:X O *D sky130_fd_sc_hd__dlygate4sd3_1
*CAP
1 *1304:A0 4.71719e-05
2 *1591:X 4.71719e-05
3 *1302:S *1304:A0 9.76435e-06
4 *1397:A0 *1304:A0 5.65955e-05
5 *1591:A *1304:A0 2.85321e-05
6 *245:132 *1304:A0 7.43315e-05
7 *488:82 *1304:A0 0.000184297
*RES
1 *1591:X *1304:A0 20.7786 
*END

*D_NET *494 0.00040722
*CONN
*I *1329:A0 I *D sky130_fd_sc_hd__mux2_1
*I *1592:X O *D sky130_fd_sc_hd__dlygate4sd3_1
*CAP
1 *1329:A0 0.000148296
2 *1592:X 0.000148296
3 *1329:A1 *1329:A0 5.60962e-05
4 *1329:S *1329:A0 5.45307e-05
*RES
1 *1592:X *1329:A0 21.1893 
*END

*D_NET *495 0.000421282
*CONN
*I *1395:A1 I *D sky130_fd_sc_hd__mux2_1
*I *1593:X O *D sky130_fd_sc_hd__dlygate4sd3_1
*CAP
1 *1395:A1 0.000144081
2 *1593:X 0.000144081
3 dout[7] *1395:A1 2.8266e-06
4 *1395:A0 *1395:A1 0.000130294
*RES
1 *1593:X *1395:A1 30.3857 
*END

*D_NET *496 0.000440007
*CONN
*I *1339:A0 I *D sky130_fd_sc_hd__mux2_1
*I *1594:X O *D sky130_fd_sc_hd__dlygate4sd3_1
*CAP
1 *1339:A0 0.000106043
2 *1594:X 0.000106043
3 *1221:A1 *1339:A0 0.000227921
*RES
1 *1594:X *1339:A0 20.7786 
*END

*D_NET *497 0.000310862
*CONN
*I *1365:A0 I *D sky130_fd_sc_hd__mux2_1
*I *1595:X O *D sky130_fd_sc_hd__dlygate4sd3_1
*CAP
1 *1365:A0 7.46997e-05
2 *1595:X 7.46997e-05
3 *1366:A *1365:A0 3.18676e-05
4 *176:87 *1365:A0 0.000129595
*RES
1 *1595:X *1365:A0 20.7786 
*END

*D_NET *498 0.000971465
*CONN
*I *1333:A0 I *D sky130_fd_sc_hd__mux2_1
*I *1596:X O *D sky130_fd_sc_hd__dlygate4sd3_1
*CAP
1 *1333:A0 0.000217702
2 *1596:X 0.000217702
3 *1248:A1 *1333:A0 0.00014183
4 *1596:A *1333:A0 0.000260519
5 *433:20 *1333:A0 9.67416e-05
6 *433:22 *1333:A0 3.69697e-05
*RES
1 *1596:X *1333:A0 32.4214 
*END

*D_NET *499 0.0199661
*CONN
*I *1186:B1 I *D sky130_fd_sc_hd__o21a_4
*I *1270:A1 I *D sky130_fd_sc_hd__a21o_1
*I *1184:C1 I *D sky130_fd_sc_hd__o211a_1
*I *1182:D1 I *D sky130_fd_sc_hd__o2111a_1
*I *1179:C1 I *D sky130_fd_sc_hd__o211a_1
*I *1631:X O *D sky130_fd_sc_hd__buf_2
*CAP
1 *1186:B1 0.0003726
2 *1270:A1 0.0047298
3 *1184:C1 8.38477e-06
4 *1182:D1 0.00040532
5 *1179:C1 1.69531e-05
6 *1631:X 0.000711482
7 *499:44 0.00567296
8 *499:21 0.0013401
9 *499:19 0.00073686
10 *499:8 0.0010927
11 *499:8 *1158:A 6.51821e-05
12 *499:8 *1161:A 3.92854e-05
13 *499:8 *1162:A 0
14 *1162:B *499:8 0
15 *1178:B *1186:B1 3.40655e-05
16 *1178:B *499:19 0.000118339
17 *1182:A2 *1182:D1 3.3304e-05
18 *1182:A2 *1186:B1 9.58689e-05
19 *1182:B1 *1182:D1 5.49489e-05
20 *1182:C1 *1182:D1 6.25407e-05
21 *1184:B1 *1184:C1 1.01912e-05
22 *1186:A1 *1186:B1 4.84159e-05
23 *1191:C *1186:B1 0.00014925
24 *1270:A2 *1270:A1 5.54817e-06
25 *1285:A1 *1270:A1 0.000100368
26 *1317:A *1179:C1 5.33005e-05
27 *1318:A *499:19 0.000200413
28 *1415:A *1270:A1 0
29 *1472:RESET_B *499:19 9.4736e-05
30 *1473:D *1186:B1 7.74068e-05
31 *1478:D *499:8 3.0285e-05
32 *1478:RESET_B *499:8 0
33 *1518:D *1270:A1 3.9733e-05
34 *1537:A *1182:D1 4.95539e-05
35 *1537:A *1270:A1 5.6358e-05
36 *1537:A *499:44 0.000237848
37 *142:40 *1184:C1 2.11419e-05
38 *152:72 *1186:B1 0.000113325
39 *157:10 *499:8 0.000123637
40 *157:10 *499:19 0.00075275
41 *157:45 *1186:B1 0.000143528
42 *157:45 *499:19 0.000230305
43 *157:56 *1186:B1 7.49777e-05
44 *163:154 *1186:B1 7.96976e-05
45 *165:63 *1270:A1 0.000338077
46 *166:76 *1270:A1 0.00011307
47 *176:24 *1270:A1 0.000135217
48 *254:129 *1270:A1 0.000188077
49 *268:18 *499:8 4.71971e-05
50 *268:18 *499:19 0.000127466
51 *288:36 *499:8 0
52 *288:68 *499:8 0
53 *328:36 *1270:A1 1.78084e-05
54 *328:113 *499:44 2.07592e-05
55 *413:12 *1270:A1 7.81337e-05
56 *430:14 *1182:D1 8.79942e-05
57 *430:14 *1270:A1 3.00598e-05
58 *430:14 *499:44 0.000445495
59 *431:14 *1270:A1 0
60 *437:8 *1179:C1 5.33005e-05
*RES
1 *1631:X *499:8 27.5857 
2 *499:8 *1179:C1 14.3357 
3 *499:8 *499:19 12.7232 
4 *499:19 *499:21 3.41 
5 *499:21 *1182:D1 21.5376 
6 *499:21 *499:44 2.49727 
7 *499:44 *1184:C1 17.4868 
8 *499:44 *1270:A1 30.1588 
9 *499:19 *1186:B1 22.2375 
*END

*D_NET *500 0.00118299
*CONN
*I *1383:A1 I *D sky130_fd_sc_hd__mux2_1
*I *1597:X O *D sky130_fd_sc_hd__dlygate4sd3_1
*CAP
1 *1383:A1 0.000337967
2 *1597:X 0.000337967
3 *1348:A *1383:A1 9.41642e-05
4 *1351:S *1383:A1 3.69697e-05
5 *1383:A0 *1383:A1 9.58689e-05
6 *1383:S *1383:A1 5.33072e-05
7 *1406:A1 *1383:A1 4.46186e-06
8 *1504:D *1383:A1 0.0001222
9 *163:86 *1383:A1 1.57931e-05
10 *176:77 *1383:A1 0
11 *268:101 *1383:A1 2.26327e-05
12 *319:78 *1383:A1 6.16579e-05
*RES
1 *1597:X *1383:A1 34.5821 
*END

*D_NET *501 0.000332974
*CONN
*I *1410:A0 I *D sky130_fd_sc_hd__mux2_1
*I *1598:X O *D sky130_fd_sc_hd__dlygate4sd3_1
*CAP
1 *1410:A0 0.000116007
2 *1598:X 0.000116007
3 *1410:S *1410:A0 0.00010096
*RES
1 *1598:X *1410:A0 20.7786 
*END

*D_NET *502 0.000623949
*CONN
*I *1180:A I *D sky130_fd_sc_hd__xor2_1
*I *1599:X O *D sky130_fd_sc_hd__dlygate4sd3_1
*CAP
1 *1180:A 0.000109918
2 *1599:X 0.000109918
3 *1286:A_N *1180:A 9.80173e-05
4 *254:29 *1180:A 0.000153047
5 *444:10 *1180:A 0.000153047
*RES
1 *1599:X *1180:A 30.4929 
*END

*D_NET *503 0.00101928
*CONN
*I *1397:A1 I *D sky130_fd_sc_hd__mux2_1
*I *1600:X O *D sky130_fd_sc_hd__dlygate4sd3_1
*CAP
1 *1397:A1 0.00028957
2 *1600:X 0.00028957
3 *1395:S *1397:A1 0.000206811
4 *1397:A0 *1397:A1 0
5 *1397:S *1397:A1 5.65955e-05
6 *1644:A *1397:A1 7.14951e-05
7 *1652:A *1397:A1 0.000105242
8 *435:52 *1397:A1 0
*RES
1 *1600:X *1397:A1 34.5286 
*END

*D_NET *504 0.00119093
*CONN
*I *1393:A1 I *D sky130_fd_sc_hd__mux2_1
*I *1602:X O *D sky130_fd_sc_hd__dlygate4sd3_1
*CAP
1 *1393:A1 0.000377994
2 *1602:X 0.000377994
3 *1221:B2 *1393:A1 0.000186669
4 *165:90 *1393:A1 7.83659e-05
5 *172:53 *1393:A1 0.000169904
*RES
1 *1602:X *1393:A1 33.2786 
*END

*D_NET *505 0.000836792
*CONN
*I *1408:A0 I *D sky130_fd_sc_hd__mux2_1
*I *1603:X O *D sky130_fd_sc_hd__dlygate4sd3_1
*CAP
1 *1408:A0 0.000227887
2 *1603:X 0.000227887
3 *1236:A2 *1408:A0 0.000227971
4 *1336:A *1408:A0 0
5 *372:12 *1408:A0 0
6 *444:81 *1408:A0 2.48938e-05
7 *444:83 *1408:A0 0.000128154
*RES
1 *1603:X *1408:A0 31.725 
*END

*D_NET *506 0.000760657
*CONN
*I *1412:A0 I *D sky130_fd_sc_hd__mux2_1
*I *1604:X O *D sky130_fd_sc_hd__dlygate4sd3_1
*CAP
1 *1412:A0 0.000291142
2 *1604:X 0.000291142
3 *1217:A *1412:A0 2.74642e-05
4 *1218:A2 *1412:A0 4.01765e-05
5 *1413:A *1412:A0 7.83659e-05
6 *1517:D *1412:A0 6.05161e-06
7 *1604:A *1412:A0 1.32552e-05
8 *466:35 *1412:A0 1.30594e-05
*RES
1 *1604:X *1412:A0 32.9036 
*END

*D_NET *507 0.00055633
*CONN
*I *1404:A0 I *D sky130_fd_sc_hd__mux2_1
*I *1605:X O *D sky130_fd_sc_hd__dlygate4sd3_1
*CAP
1 *1404:A0 0.000225632
2 *1605:X 0.000225632
3 *142:132 *1404:A0 0
4 *334:86 *1404:A0 3.92854e-05
5 *422:14 *1404:A0 2.27416e-05
6 *422:30 *1404:A0 4.30382e-05
*RES
1 *1605:X *1404:A0 30.8143 
*END

*D_NET *508 0.000465938
*CONN
*I *1258:A0 I *D sky130_fd_sc_hd__mux2_1
*I *1606:X O *D sky130_fd_sc_hd__dlygate4sd3_1
*CAP
1 *1258:A0 0.000197664
2 *1606:X 0.000197664
3 *1270:A2 *1258:A0 7.0611e-05
4 *466:35 *1258:A0 0
*RES
1 *1606:X *1258:A0 30.4036 
*END

*D_NET *509 0.000766561
*CONN
*I *1161:A I *D sky130_fd_sc_hd__xnor2_1
*I *1607:X O *D sky130_fd_sc_hd__dlygate4sd3_1
*CAP
1 *1161:A 0.000251837
2 *1607:X 0.000251837
3 *1161:B *1161:A 0.000223602
4 *499:8 *1161:A 3.92854e-05
*RES
1 *1607:X *1161:A 31.85 
*END

*D_NET *510 0.00443439
*CONN
*I *1155:A_N I *D sky130_fd_sc_hd__and2b_1
*I *1154:B_N I *D sky130_fd_sc_hd__nor2b_2
*I *1177:A I *D sky130_fd_sc_hd__clkbuf_4
*I *1472:Q O *D sky130_fd_sc_hd__dfrtp_1
*CAP
1 *1155:A_N 0.000435134
2 *1154:B_N 0
3 *1177:A 0.000224815
4 *1472:Q 7.90061e-05
5 *510:19 0.00072284
6 *510:6 0.000591528
7 *1155:A_N *1155:B 9.60875e-05
8 *1155:A_N *515:44 0.000125731
9 *1177:A *1152:B 0
10 *1177:A *1174:B_N 5.97627e-05
11 *158:45 *510:6 0.000180764
12 *158:45 *510:19 0.000344617
13 *167:122 *1155:A_N 0.000259888
14 *167:122 *510:19 0.000789489
15 *168:30 *1155:A_N 0.000396686
16 *168:30 *1177:A 0.00012401
17 *245:20 *1177:A 0
18 *329:14 *510:6 4.0342e-06
*RES
1 *1472:Q *510:6 11.0679 
2 *510:6 *1177:A 22.3714 
3 *510:6 *510:19 7.92857 
4 *510:19 *1154:B_N 9.3 
5 *510:19 *1155:A_N 27.6036 
*END

*D_NET *511 0.00176331
*CONN
*I *1171:A I *D sky130_fd_sc_hd__buf_2
*I *1153:B I *D sky130_fd_sc_hd__xor2_2
*I *1473:Q O *D sky130_fd_sc_hd__dfrtp_1
*CAP
1 *1171:A 5.94188e-05
2 *1153:B 0.000127425
3 *1473:Q 0.000348122
4 *511:10 0.000534965
5 *511:10 *1200:C 1.4796e-05
6 *1185:A2 *511:10 5.53232e-05
7 *1535:CLK *1171:A 4.87953e-05
8 *1538:A *1153:B 0.00016715
9 *1538:A *511:10 9.54798e-06
10 *152:12 *1153:B 0
11 *152:12 *1171:A 9.60939e-05
12 *152:12 *511:10 0
13 *152:18 *511:10 7.22574e-05
14 *245:20 *1153:B 0
15 *328:113 *511:10 0.000128777
16 *330:10 *511:10 0.000100635
*RES
1 *1473:Q *511:10 20.2821 
2 *511:10 *1153:B 6.75 
3 *511:10 *1171:A 15.6036 
*END

*D_NET *512 0.00839673
*CONN
*I *1199:A I *D sky130_fd_sc_hd__nor3b_4
*I *1200:C I *D sky130_fd_sc_hd__and3b_4
*I *1195:C I *D sky130_fd_sc_hd__and3b_1
*I *1181:A I *D sky130_fd_sc_hd__clkbuf_4
*I *1191:A_N I *D sky130_fd_sc_hd__and3b_4
*I *1192:A I *D sky130_fd_sc_hd__nor3b_2
*I *1174:A I *D sky130_fd_sc_hd__or2b_1
*I *1152:B I *D sky130_fd_sc_hd__xor2_2
*I *1178:A I *D sky130_fd_sc_hd__and3_4
*I *1474:Q O *D sky130_fd_sc_hd__dfrtp_4
*CAP
1 *1199:A 3.15636e-05
2 *1200:C 0.000107369
3 *1195:C 0
4 *1181:A 5.2073e-05
5 *1191:A_N 0
6 *1192:A 0
7 *1174:A 0
8 *1152:B 0.000318064
9 *1178:A 0
10 *1474:Q 0.000144713
11 *512:82 0.000323829
12 *512:75 0.000361256
13 *512:59 0.000157459
14 *512:48 0.00015653
15 *512:44 0.000322991
16 *512:23 0.000613544
17 *512:21 0.000795798
18 *512:12 0.000549544
19 *1152:B *1152:A 5.46383e-06
20 *1152:B *1174:B_N 0
21 *1152:B *516:53 0.000313215
22 *1177:A *1152:B 0
23 *1178:B *512:21 3.30417e-05
24 *1179:A1 *512:12 0.000219592
25 *1183:A1 *512:21 6.68971e-06
26 *1183:A1 *512:44 4.48459e-05
27 *1183:A1 *512:48 1.43628e-05
28 *1183:A1 *512:59 4.18788e-05
29 *1185:A2 *1200:C 0.000139337
30 *1185:A2 *512:75 1.35553e-05
31 *1195:A_N *512:75 9.27431e-05
32 *1195:A_N *512:82 6.57032e-05
33 *1196:A *512:82 1.21258e-05
34 *1473:RESET_B *512:23 0.000192976
35 *1473:RESET_B *512:44 0.000171241
36 *152:18 *1200:C 0.000194662
37 *152:24 *1199:A 3.45371e-05
38 *152:24 *512:82 1.98839e-05
39 *152:61 *1181:A 0.000268049
40 *157:16 *512:21 4.53889e-05
41 *158:6 *512:21 1.40306e-05
42 *158:83 *512:21 1.90303e-05
43 *163:154 *512:12 0.000217877
44 *167:6 *1181:A 0.000140243
45 *167:10 *512:59 8.67814e-06
46 *167:122 *1181:A 0.000140243
47 *168:30 *1152:B 0
48 *245:20 *1200:C 9.72196e-05
49 *268:18 *1152:B 0.000229295
50 *288:68 *1152:B 0.000268119
51 *288:68 *512:23 0.000755199
52 *288:68 *512:44 0.000220399
53 *288:68 *512:48 6.27899e-05
54 *288:68 *512:59 0.000206371
55 *329:14 *512:23 6.95205e-05
56 *329:105 *512:23 6.88974e-05
57 *437:42 *1152:B 0
58 *437:42 *512:23 0
59 *511:10 *1200:C 1.4796e-05
*RES
1 *1474:Q *512:12 22.1036 
2 *512:12 *1178:A 9.3 
3 *512:12 *512:21 9.14286 
4 *512:21 *512:23 9.83929 
5 *512:23 *1152:B 13.3839 
6 *512:23 *1174:A 13.8 
7 *512:21 *512:44 3.46429 
8 *512:44 *512:48 1.26786 
9 *512:48 *1192:A 13.8 
10 *512:48 *512:59 7.35714 
11 *512:59 *1191:A_N 9.3 
12 *512:59 *1181:A 11.8893 
13 *512:44 *512:75 6.67857 
14 *512:75 *1195:C 9.3 
15 *512:75 *512:82 2.17857 
16 *512:82 *1200:C 21.425 
17 *512:82 *1199:A 10.0321 
*END

*D_NET *513 0.00210753
*CONN
*I *1599:A I *D sky130_fd_sc_hd__dlygate4sd3_1
*I *1158:B I *D sky130_fd_sc_hd__xnor2_4
*I *1475:Q O *D sky130_fd_sc_hd__dfrtp_2
*CAP
1 *1599:A 0.00025339
2 *1158:B 0.000552152
3 *1475:Q 0
4 *513:6 0.000805542
5 *1286:A_N *1599:A 3.05446e-05
6 *1287:A *1599:A 6.11433e-05
7 *1633:A *1599:A 3.53073e-05
8 *244:47 *1158:B 0.000140935
9 *244:51 *1158:B 0.000228514
10 *418:18 *1599:A 0
*RES
1 *1475:Q *513:6 13.8 
2 *513:6 *1158:B 24.0857 
3 *513:6 *1599:A 18.9786 
*END

*D_NET *514 0.0103071
*CONN
*I *1345:B I *D sky130_fd_sc_hd__and3b_1
*I *1418:B I *D sky130_fd_sc_hd__and3b_1
*I *1326:B I *D sky130_fd_sc_hd__nor2_1
*I *1436:A_N I *D sky130_fd_sc_hd__and3b_1
*I *1154:A I *D sky130_fd_sc_hd__nor2b_2
*I *1363:A_N I *D sky130_fd_sc_hd__and3b_1
*I *1155:B I *D sky130_fd_sc_hd__and2b_1
*I *1159:C1 I *D sky130_fd_sc_hd__o2111a_1
*I *1169:B1 I *D sky130_fd_sc_hd__a21oi_1
*I *1166:A I *D sky130_fd_sc_hd__and3_1
*I *1476:Q O *D sky130_fd_sc_hd__dfrtp_4
*CAP
1 *1345:B 0
2 *1418:B 3.68863e-05
3 *1326:B 7.0125e-05
4 *1436:A_N 9.60254e-05
5 *1154:A 0.000117803
6 *1363:A_N 1.69531e-05
7 *1155:B 2.46213e-05
8 *1159:C1 0.000240174
9 *1169:B1 0
10 *1166:A 1.02618e-05
11 *1476:Q 0.000428177
12 *514:115 0.000495083
13 *514:92 0.000533176
14 *514:83 0.000187532
15 *514:70 8.62912e-05
16 *514:59 0.00038022
17 *514:53 0.000558082
18 *514:16 5.94128e-05
19 *514:14 0.000539906
20 *514:10 0.00092993
21 *1159:C1 *1325:A_N 5.49995e-05
22 *1326:B *1326:A 7.50601e-05
23 *1436:A_N *1345:A_N 5.83304e-05
24 *1436:A_N *515:65 2.93957e-05
25 *514:59 *1345:A_N 5.50052e-05
26 *514:115 *1326:A 6.8646e-06
27 *514:115 *1363:C 2.89016e-05
28 *1155:A_N *1155:B 9.60875e-05
29 *1157:A *1154:A 0.000315711
30 *1159:D1 *1159:C1 0.000525892
31 *1166:B *1166:A 2.07878e-05
32 *1166:B *514:16 2.70242e-05
33 *1271:A *514:14 0.000183711
34 *1272:A1 *1159:C1 0.000146853
35 *1327:B *1436:A_N 1.30798e-05
36 *1327:B *514:115 0.000167633
37 *1345:C *514:53 3.54697e-06
38 *1345:C *514:59 1.29975e-05
39 *1399:C *514:59 5.74499e-06
40 *1400:A *1436:A_N 5.33005e-05
41 *1401:A *1418:B 2.44318e-05
42 *1401:A *1436:A_N 5.33005e-05
43 *1401:A *514:115 6.71755e-05
44 *1418:C *514:115 0.00014652
45 *1419:A *1326:B 7.50601e-05
46 *1647:A *1436:A_N 0.00016834
47 *1647:A *514:59 0.000288878
48 *1647:A *514:70 0.000121573
49 *1647:A *514:83 5.41794e-05
50 *37:10 *514:10 0
51 *142:8 *1154:A 2.28598e-05
52 *148:27 *1159:C1 3.14003e-05
53 *148:27 *1166:A 5.65955e-05
54 *148:27 *514:16 0.000141729
55 *148:34 *514:14 0.000292175
56 *148:34 *514:16 5.50052e-05
57 *158:45 *1154:A 0.00039665
58 *158:45 *1363:A_N 5.33005e-05
59 *158:45 *514:92 8.36572e-05
60 *158:45 *514:115 0.000167436
61 *167:122 *1154:A 6.76823e-05
62 *167:122 *1363:A_N 5.33005e-05
63 *168:30 *1155:B 9.60875e-05
64 *245:132 *1159:C1 0.000401872
65 *255:8 *514:53 3.75868e-05
66 *256:10 *514:115 8.00806e-05
67 *258:14 *514:115 0
68 *258:40 *514:115 0
69 *268:18 *514:53 6.26598e-06
70 *268:18 *514:59 6.90592e-06
71 *297:14 *514:59 0.000314352
72 *297:14 *514:70 0.000114045
73 *297:14 *514:83 4.56437e-05
74 *413:77 *514:16 2.39329e-05
75 *426:10 *514:10 6.75007e-05
*RES
1 *1476:Q *514:10 21.3 
2 *514:10 *514:14 9.14286 
3 *514:14 *514:16 1.76786 
4 *514:16 *1166:A 9.83571 
5 *514:16 *1169:B1 9.3 
6 *514:14 *1159:C1 27.1036 
7 *514:10 *514:53 8.80357 
8 *514:53 *514:59 10.8571 
9 *514:59 *1155:B 14.7464 
10 *514:59 *514:70 1.64286 
11 *514:70 *1363:A_N 14.3357 
12 *514:70 *514:83 5.23214 
13 *514:83 *1154:A 13.9429 
14 *514:83 *514:92 0.946429 
15 *514:92 *1436:A_N 21.0857 
16 *514:92 *514:115 16.1071 
17 *514:115 *1326:B 20.2464 
18 *514:115 *1418:B 9.83571 
19 *514:53 *1345:B 9.3 
*END

*D_NET *515 0.00938085
*CONN
*I *1153:A I *D sky130_fd_sc_hd__xor2_2
*I *1326:A I *D sky130_fd_sc_hd__nor2_1
*I *1418:A_N I *D sky130_fd_sc_hd__and3b_1
*I *1436:C I *D sky130_fd_sc_hd__and3b_1
*I *1363:C I *D sky130_fd_sc_hd__and3b_1
*I *1345:A_N I *D sky130_fd_sc_hd__and3b_1
*I *1172:B_N I *D sky130_fd_sc_hd__or2b_1
*I *1159:B1 I *D sky130_fd_sc_hd__o2111a_1
*I *1167:A I *D sky130_fd_sc_hd__nor2_1
*I *1477:Q O *D sky130_fd_sc_hd__dfrtp_4
*CAP
1 *1153:A 0.000358373
2 *1326:A 0.000158505
3 *1418:A_N 0
4 *1436:C 0
5 *1363:C 4.33716e-05
6 *1345:A_N 0.00034297
7 *1172:B_N 0
8 *1159:B1 0
9 *1167:A 0.000163374
10 *1477:Q 0.000282222
11 *515:102 0.000247404
12 *515:91 0.000124305
13 *515:65 0.000429121
14 *515:61 0.000456125
15 *515:50 0.000436375
16 *515:44 0.000903596
17 *515:18 0.000315872
18 *515:14 0.000921506
19 *1155:A_N *515:44 0.000125731
20 *1156:D *515:50 9.99853e-05
21 *1156:D *515:61 0.000173836
22 *1159:A1 *515:44 0.000240339
23 *1159:D1 *515:18 0.000226946
24 *1167:B *1167:A 1.8899e-05
25 *1170:A *515:14 0.000150618
26 *1172:A *1153:A 0.00010326
27 *1272:A1 *515:14 0
28 *1273:A *1153:A 6.95811e-05
29 *1282:A *1153:A 3.99614e-06
30 *1282:B *1153:A 0.000100684
31 *1322:A *1167:A 8.72987e-06
32 *1322:A *515:14 3.70933e-05
33 *1326:B *1326:A 7.50601e-05
34 *1327:B *1345:A_N 5.05667e-05
35 *1327:B *515:65 7.40526e-05
36 *1363:B *1345:A_N 7.80929e-05
37 *1399:C *1345:A_N 2.40093e-05
38 *1400:A *515:61 0.000343634
39 *1400:A *515:91 5.33005e-05
40 *1400:A *515:102 4.81734e-05
41 *1401:A *1326:A 5.33005e-05
42 *1401:A *515:102 0.000105555
43 *1418:C *1326:A 5.41794e-05
44 *1436:A_N *1345:A_N 5.83304e-05
45 *1436:A_N *515:65 2.93957e-05
46 *1437:A *1326:A 4.27935e-05
47 *1437:A *515:102 9.03632e-05
48 *1476:CLK *515:14 0.000228514
49 *1476:D *515:14 0.000119754
50 *1477:RESET_B *1167:A 2.64976e-05
51 *1647:A *1326:A 0
52 *1647:A *1345:A_N 0.000181411
53 *138:30 *1153:A 2.61099e-05
54 *140:8 *515:44 0
55 *140:21 *515:44 0
56 *142:10 *515:44 0.000399686
57 *142:40 *1153:A 2.23987e-05
58 *142:40 *515:44 0.000148189
59 *144:46 *1167:A 1.87331e-05
60 *148:12 *515:14 7.74068e-05
61 *148:12 *515:44 0.000213579
62 *158:45 *515:44 4.19624e-06
63 *255:8 *1345:A_N 1.90223e-05
64 *255:19 *1345:A_N 7.04641e-05
65 *256:10 *1326:A 0
66 *258:40 *1326:A 0
67 *268:18 *1345:A_N 1.0484e-05
68 *514:59 *1345:A_N 5.50052e-05
69 *514:115 *1326:A 6.8646e-06
70 *514:115 *1363:C 2.89016e-05
*RES
1 *1477:Q *515:14 21.0143 
2 *515:14 *515:18 6.67857 
3 *515:18 *1167:A 21.55 
4 *515:18 *1159:B1 9.3 
5 *515:14 *515:44 11.2857 
6 *515:44 *515:50 5.875 
7 *515:50 *1172:B_N 9.3 
8 *515:50 *515:61 6.32143 
9 *515:61 *515:65 5.53571 
10 *515:65 *1345:A_N 21.1929 
11 *515:65 *1363:C 14.3357 
12 *515:61 *515:91 0.535714 
13 *515:91 *1436:C 9.3 
14 *515:91 *515:102 2.21429 
15 *515:102 *1418:A_N 9.3 
16 *515:102 *1326:A 21.6929 
17 *515:44 *1153:A 20.7107 
*END

*D_NET *516 0.00726891
*CONN
*I *1174:B_N I *D sky130_fd_sc_hd__or2b_1
*I *1152:A I *D sky130_fd_sc_hd__xor2_2
*I *1399:A I *D sky130_fd_sc_hd__and4_1
*I *1325:A_N I *D sky130_fd_sc_hd__and4b_1
*I *1160:A I *D sky130_fd_sc_hd__nand2_2
*I *1381:A I *D sky130_fd_sc_hd__or3b_1
*I *1162:A I *D sky130_fd_sc_hd__or2_1
*I *1478:Q O *D sky130_fd_sc_hd__dfrtp_4
*CAP
1 *1174:B_N 0.000296427
2 *1152:A 2.70808e-05
3 *1399:A 0
4 *1325:A_N 0.000149623
5 *1160:A 0
6 *1381:A 3.82371e-05
7 *1162:A 0.000342863
8 *1478:Q 7.46145e-05
9 *516:59 0.000930512
10 *516:53 0.000984727
11 *516:49 0.000656932
12 *516:40 0.000262731
13 *516:29 0.000223669
14 *516:6 0.000523927
15 *1152:B *1152:A 5.46383e-06
16 *1152:B *1174:B_N 0
17 *1152:B *516:53 0.000313215
18 *1159:C1 *1325:A_N 5.49995e-05
19 *1159:D1 *1325:A_N 1.38323e-05
20 *1163:B *516:40 0.000150348
21 *1163:B *516:49 0.000172147
22 *1164:A *1162:A 2.89016e-05
23 *1164:A *516:29 9.25014e-06
24 *1164:A *516:40 0.000206904
25 *1164:A *516:49 0.000114861
26 *1165:A *516:59 1.2104e-05
27 *1165:B *516:59 0.00014894
28 *1175:B1 *1174:B_N 7.77652e-05
29 *1177:A *1174:B_N 5.97627e-05
30 *1382:A *1162:A 0
31 *1382:A *1381:A 6.05161e-06
32 *1399:B *1325:A_N 7.17807e-05
33 *1399:D *516:59 0.000138217
34 *1478:CLK *1162:A 5.06983e-05
35 *1478:CLK *516:29 0
36 *148:6 *516:59 5.33005e-05
37 *244:8 *516:6 6.05161e-06
38 *244:21 *516:29 5.03787e-05
39 *244:21 *516:40 2.37761e-05
40 *245:132 *1325:A_N 0.000139344
41 *268:18 *1152:A 2.11336e-05
42 *268:18 *516:53 8.10737e-06
43 *268:18 *516:59 1.54821e-05
44 *288:36 *1162:A 0.000258759
45 *288:36 *516:6 3.39935e-05
46 *288:36 *516:29 0
47 *329:62 *1381:A 9.90431e-05
48 *413:36 *1325:A_N 5.50052e-05
49 *437:8 *1174:B_N 0.000357945
50 *499:8 *1162:A 0
*RES
1 *1478:Q *516:6 10.6571 
2 *516:6 *1162:A 25.3536 
3 *516:6 *516:29 6.44643 
4 *516:29 *1381:A 14.7464 
5 *516:29 *516:40 2.85714 
6 *516:40 *1160:A 13.8 
7 *516:40 *516:49 4.375 
8 *516:49 *516:53 8.32143 
9 *516:53 *516:59 10.4286 
10 *516:59 *1325:A_N 21.6036 
11 *516:59 *1399:A 9.3 
12 *516:53 *1152:A 10.2643 
13 *516:49 *1174:B_N 20.1929 
*END

*D_NET *517 0.00107596
*CONN
*I *1607:A I *D sky130_fd_sc_hd__dlygate4sd3_1
*I *1158:A I *D sky130_fd_sc_hd__xnor2_4
*I *1479:Q O *D sky130_fd_sc_hd__dfrtp_2
*CAP
1 *1607:A 0.000112219
2 *1158:A 0.00012007
3 *1479:Q 4.88412e-05
4 *517:6 0.00028113
5 *329:41 *1607:A 0.000303747
6 *329:41 *517:6 0.000144773
7 *499:8 *1158:A 6.51821e-05
*RES
1 *1479:Q *517:6 10.6571 
2 *517:6 *1158:A 20.8536 
3 *517:6 *1607:A 12.3 
*END
