*SPEF "ieee 1481-1999"
*DESIGN "syn_fifo"
*DATE "11:11:11 Fri 11 11, 1111"
*VENDOR "OpenRCX"
*PROGRAM "Parallel Extraction"
*VERSION "1.0"
*DESIGN_FLOW "NAME_SCOPE LOCAL" "PIN_CAP NONE"
*DIVIDER /
*DELIMITER :
*BUS_DELIMITER []
*T_UNIT 1 NS
*C_UNIT 1 PF
*R_UNIT 1 OHM
*L_UNIT 1 HENRY

*NAME_MAP
*3 almost_empty
*4 almost_full
*5 clk
*6 din[0]
*7 din[1]
*8 din[2]
*9 din[3]
*10 din[4]
*11 din[5]
*12 din[6]
*13 din[7]
*14 dout[0]
*15 dout[1]
*16 dout[2]
*17 dout[3]
*18 dout[4]
*19 dout[5]
*20 dout[6]
*21 dout[7]
*22 empty
*23 full
*24 overrun
*25 rd
*26 rst
*27 underrun
*28 unused[0]
*29 unused[1]
*30 unused[2]
*31 unused[3]
*32 used[0]
*33 used[1]
*34 used[2]
*35 used[3]
*36 wr
*37 _000_
*38 _001_
*39 _002_
*40 _003_
*41 _004_
*42 _005_
*43 _006_
*44 _007_
*45 _008_
*46 _009_
*47 _010_
*48 _011_
*49 _012_
*50 _013_
*51 _014_
*52 _015_
*53 _016_
*54 _017_
*55 _018_
*56 _019_
*57 _020_
*58 _021_
*59 _022_
*60 _023_
*61 _024_
*62 _025_
*63 _026_
*64 _027_
*65 _028_
*66 _029_
*67 _030_
*68 _031_
*69 _032_
*70 _033_
*71 _034_
*72 _035_
*73 _036_
*74 _037_
*75 _038_
*76 _039_
*77 _040_
*78 _041_
*79 _042_
*80 _043_
*81 _044_
*82 _045_
*83 _046_
*84 _047_
*85 _048_
*86 _049_
*87 _050_
*88 _051_
*89 _052_
*90 _053_
*91 _054_
*92 _055_
*93 _056_
*94 _057_
*95 _058_
*96 _059_
*97 _060_
*98 _061_
*99 _062_
*100 _063_
*101 _064_
*102 _065_
*103 _066_
*104 _067_
*105 _068_
*106 _069_
*107 _070_
*108 _071_
*109 _072_
*110 _073_
*111 _074_
*112 _075_
*113 _076_
*114 _077_
*115 _078_
*116 _079_
*117 _080_
*118 _081_
*119 _082_
*120 _083_
*121 _084_
*122 _085_
*123 _086_
*124 _087_
*125 _088_
*126 _089_
*127 _090_
*128 _091_
*129 _092_
*130 _093_
*131 _094_
*132 _095_
*133 _096_
*134 _097_
*135 _098_
*136 _099_
*137 _100_
*138 _101_
*139 _102_
*140 _103_
*141 _104_
*142 _105_
*143 _106_
*144 _107_
*145 _108_
*146 _109_
*147 _110_
*148 _111_
*149 _112_
*150 _113_
*151 _114_
*152 _115_
*153 _116_
*154 _117_
*155 _118_
*156 _119_
*157 _120_
*158 _121_
*159 _122_
*160 _123_
*161 _124_
*162 _125_
*163 _126_
*164 _127_
*165 _128_
*166 _129_
*167 _130_
*168 _131_
*169 _132_
*170 _133_
*171 _134_
*172 _135_
*173 _136_
*174 _137_
*175 _138_
*176 _139_
*177 _140_
*178 _141_
*179 _142_
*180 _143_
*181 _144_
*182 _145_
*183 _146_
*184 _147_
*185 _148_
*186 _149_
*187 _150_
*188 _151_
*189 _152_
*190 _153_
*191 _154_
*192 _155_
*193 _156_
*194 _157_
*195 _158_
*196 _159_
*197 _160_
*198 _161_
*199 _162_
*200 _163_
*201 _164_
*202 _165_
*203 _166_
*204 _167_
*205 _168_
*206 _169_
*207 _170_
*208 _171_
*209 _172_
*210 _173_
*211 _174_
*212 _175_
*213 _176_
*214 _177_
*215 _178_
*216 _179_
*217 _180_
*218 _181_
*219 _182_
*220 _183_
*221 _184_
*222 _185_
*223 _186_
*224 _187_
*225 _188_
*226 _189_
*227 _190_
*228 _191_
*229 _192_
*230 _193_
*231 _194_
*232 _195_
*233 _196_
*234 _197_
*235 _198_
*236 _199_
*237 _200_
*238 _201_
*239 _202_
*240 _203_
*241 _204_
*242 _205_
*243 _206_
*244 _207_
*245 _208_
*246 _209_
*247 _210_
*248 _211_
*249 _212_
*250 _213_
*251 _214_
*252 _215_
*253 _216_
*254 _217_
*255 _218_
*256 _219_
*257 _220_
*258 _221_
*259 _222_
*260 _223_
*261 _224_
*262 _225_
*263 _226_
*264 _227_
*265 _228_
*266 _229_
*267 _230_
*268 _231_
*269 _232_
*270 _233_
*271 _234_
*272 _235_
*273 _236_
*274 _237_
*275 _238_
*276 _239_
*277 _240_
*278 _241_
*279 _242_
*280 _243_
*281 _244_
*282 _245_
*283 _246_
*284 _247_
*285 _248_
*286 _249_
*287 _250_
*288 _251_
*289 _252_
*290 _253_
*291 _254_
*292 _255_
*293 _256_
*294 _257_
*295 _258_
*296 _259_
*297 _260_
*298 _261_
*299 _262_
*300 _263_
*301 _264_
*302 _265_
*303 _266_
*304 _267_
*305 _268_
*306 _269_
*307 _270_
*308 _271_
*309 _272_
*310 _273_
*311 _274_
*312 _275_
*313 _276_
*314 _277_
*315 _278_
*316 _279_
*317 _280_
*318 _281_
*319 _282_
*320 _283_
*321 _284_
*322 _285_
*323 _286_
*324 _287_
*325 _288_
*326 _289_
*327 _290_
*328 clknet_0_clk
*329 clknet_3_0__leaf_clk
*330 clknet_3_1__leaf_clk
*331 clknet_3_2__leaf_clk
*332 clknet_3_3__leaf_clk
*333 clknet_3_4__leaf_clk
*334 clknet_3_5__leaf_clk
*335 clknet_3_6__leaf_clk
*336 clknet_3_7__leaf_clk
*337 fifo_mem\[0\]\[0\]
*338 fifo_mem\[0\]\[1\]
*339 fifo_mem\[0\]\[2\]
*340 fifo_mem\[0\]\[3\]
*341 fifo_mem\[0\]\[4\]
*342 fifo_mem\[0\]\[5\]
*343 fifo_mem\[0\]\[6\]
*344 fifo_mem\[0\]\[7\]
*345 fifo_mem\[1\]\[0\]
*346 fifo_mem\[1\]\[1\]
*347 fifo_mem\[1\]\[2\]
*348 fifo_mem\[1\]\[3\]
*349 fifo_mem\[1\]\[4\]
*350 fifo_mem\[1\]\[5\]
*351 fifo_mem\[1\]\[6\]
*352 fifo_mem\[1\]\[7\]
*353 fifo_mem\[2\]\[0\]
*354 fifo_mem\[2\]\[1\]
*355 fifo_mem\[2\]\[2\]
*356 fifo_mem\[2\]\[3\]
*357 fifo_mem\[2\]\[4\]
*358 fifo_mem\[2\]\[5\]
*359 fifo_mem\[2\]\[6\]
*360 fifo_mem\[2\]\[7\]
*361 fifo_mem\[3\]\[0\]
*362 fifo_mem\[3\]\[1\]
*363 fifo_mem\[3\]\[2\]
*364 fifo_mem\[3\]\[3\]
*365 fifo_mem\[3\]\[4\]
*366 fifo_mem\[3\]\[5\]
*367 fifo_mem\[3\]\[6\]
*368 fifo_mem\[3\]\[7\]
*369 fifo_mem\[4\]\[0\]
*370 fifo_mem\[4\]\[1\]
*371 fifo_mem\[4\]\[2\]
*372 fifo_mem\[4\]\[3\]
*373 fifo_mem\[4\]\[4\]
*374 fifo_mem\[4\]\[5\]
*375 fifo_mem\[4\]\[6\]
*376 fifo_mem\[4\]\[7\]
*377 fifo_mem\[5\]\[0\]
*378 fifo_mem\[5\]\[1\]
*379 fifo_mem\[5\]\[2\]
*380 fifo_mem\[5\]\[3\]
*381 fifo_mem\[5\]\[4\]
*382 fifo_mem\[5\]\[5\]
*383 fifo_mem\[5\]\[6\]
*384 fifo_mem\[5\]\[7\]
*385 fifo_mem\[6\]\[0\]
*386 fifo_mem\[6\]\[1\]
*387 fifo_mem\[6\]\[2\]
*388 fifo_mem\[6\]\[3\]
*389 fifo_mem\[6\]\[4\]
*390 fifo_mem\[6\]\[5\]
*391 fifo_mem\[6\]\[6\]
*392 fifo_mem\[6\]\[7\]
*393 fifo_mem\[7\]\[0\]
*394 fifo_mem\[7\]\[1\]
*395 fifo_mem\[7\]\[2\]
*396 fifo_mem\[7\]\[3\]
*397 fifo_mem\[7\]\[4\]
*398 fifo_mem\[7\]\[5\]
*399 fifo_mem\[7\]\[6\]
*400 fifo_mem\[7\]\[7\]
*401 net1
*402 net10
*403 net100
*404 net101
*405 net102
*406 net103
*407 net104
*408 net105
*409 net106
*410 net107
*411 net108
*412 net109
*413 net11
*414 net12
*415 net13
*416 net14
*417 net15
*418 net16
*419 net17
*420 net18
*421 net19
*422 net2
*423 net20
*424 net21
*425 net22
*426 net23
*427 net24
*428 net25
*429 net26
*430 net27
*431 net28
*432 net29
*433 net3
*434 net30
*435 net31
*436 net32
*437 net33
*438 net34
*439 net35
*440 net36
*441 net37
*442 net38
*443 net39
*444 net4
*445 net40
*446 net41
*447 net42
*448 net43
*449 net44
*450 net45
*451 net46
*452 net47
*453 net48
*454 net49
*455 net5
*456 net50
*457 net51
*458 net52
*459 net53
*460 net54
*461 net55
*462 net56
*463 net57
*464 net58
*465 net59
*466 net6
*467 net60
*468 net61
*469 net62
*470 net63
*471 net64
*472 net65
*473 net66
*474 net67
*475 net68
*476 net69
*477 net7
*478 net70
*479 net71
*480 net72
*481 net73
*482 net74
*483 net75
*484 net76
*485 net77
*486 net78
*487 net79
*488 net8
*489 net80
*490 net81
*491 net82
*492 net83
*493 net84
*494 net85
*495 net86
*496 net87
*497 net88
*498 net89
*499 net9
*500 net90
*501 net91
*502 net92
*503 net93
*504 net94
*505 net95
*506 net96
*507 net97
*508 net98
*509 net99
*510 rd_ptr\[0\]
*511 rd_ptr\[1\]
*512 rd_ptr\[2\]
*513 rd_ptr\[3\]
*514 wr_ptr\[0\]
*515 wr_ptr\[1\]
*516 wr_ptr\[2\]
*517 wr_ptr\[3\]
*518 FILLER_0_0_102
*519 FILLER_0_0_113
*520 FILLER_0_0_132
*521 FILLER_0_0_137
*522 FILLER_0_0_14
*523 FILLER_0_0_156
*524 FILLER_0_0_169
*525 FILLER_0_0_177
*526 FILLER_0_0_182
*527 FILLER_0_0_186
*528 FILLER_0_0_26
*529 FILLER_0_0_29
*530 FILLER_0_0_3
*531 FILLER_0_0_37
*532 FILLER_0_0_42
*533 FILLER_0_0_46
*534 FILLER_0_0_50
*535 FILLER_0_0_57
*536 FILLER_0_0_65
*537 FILLER_0_0_69
*538 FILLER_0_0_7
*539 FILLER_0_0_81
*540 FILLER_0_0_85
*541 FILLER_0_10_148
*542 FILLER_0_10_15
*543 FILLER_0_10_154
*544 FILLER_0_10_174
*545 FILLER_0_10_178
*546 FILLER_0_10_19
*547 FILLER_0_10_190
*548 FILLER_0_10_194
*549 FILLER_0_10_29
*550 FILLER_0_10_3
*551 FILLER_0_10_35
*552 FILLER_0_10_69
*553 FILLER_0_10_75
*554 FILLER_0_10_83
*555 FILLER_0_10_85
*556 FILLER_0_10_97
*557 FILLER_0_11_101
*558 FILLER_0_11_109
*559 FILLER_0_11_120
*560 FILLER_0_11_124
*561 FILLER_0_11_128
*562 FILLER_0_11_15
*563 FILLER_0_11_155
*564 FILLER_0_11_167
*565 FILLER_0_11_169
*566 FILLER_0_11_177
*567 FILLER_0_11_23
*568 FILLER_0_11_3
*569 FILLER_0_11_54
*570 FILLER_0_11_82
*571 FILLER_0_11_88
*572 FILLER_0_12_116
*573 FILLER_0_12_120
*574 FILLER_0_12_15
*575 FILLER_0_12_150
*576 FILLER_0_12_176
*577 FILLER_0_12_193
*578 FILLER_0_12_27
*579 FILLER_0_12_29
*580 FILLER_0_12_3
*581 FILLER_0_12_74
*582 FILLER_0_12_82
*583 FILLER_0_13_113
*584 FILLER_0_13_121
*585 FILLER_0_13_146
*586 FILLER_0_13_177
*587 FILLER_0_13_181
*588 FILLER_0_13_3
*589 FILLER_0_13_33
*590 FILLER_0_13_37
*591 FILLER_0_13_54
*592 FILLER_0_13_57
*593 FILLER_0_13_76
*594 FILLER_0_13_84
*595 FILLER_0_13_9
*596 FILLER_0_13_90
*597 FILLER_0_14_117
*598 FILLER_0_14_124
*599 FILLER_0_14_137
*600 FILLER_0_14_158
*601 FILLER_0_14_170
*602 FILLER_0_14_174
*603 FILLER_0_14_25
*604 FILLER_0_14_29
*605 FILLER_0_14_3
*606 FILLER_0_14_50
*607 FILLER_0_14_56
*608 FILLER_0_14_68
*609 FILLER_0_14_76
*610 FILLER_0_14_80
*611 FILLER_0_14_85
*612 FILLER_0_14_99
*613 FILLER_0_15_110
*614 FILLER_0_15_149
*615 FILLER_0_15_169
*616 FILLER_0_15_182
*617 FILLER_0_15_21
*618 FILLER_0_15_52
*619 FILLER_0_15_57
*620 FILLER_0_15_67
*621 FILLER_0_15_9
*622 FILLER_0_15_98
*623 FILLER_0_16_10
*624 FILLER_0_16_120
*625 FILLER_0_16_148
*626 FILLER_0_16_167
*627 FILLER_0_16_193
*628 FILLER_0_16_24
*629 FILLER_0_16_29
*630 FILLER_0_16_3
*631 FILLER_0_16_52
*632 FILLER_0_16_83
*633 FILLER_0_16_94
*634 FILLER_0_17_111
*635 FILLER_0_17_120
*636 FILLER_0_17_134
*637 FILLER_0_17_140
*638 FILLER_0_17_150
*639 FILLER_0_17_164
*640 FILLER_0_17_183
*641 FILLER_0_17_23
*642 FILLER_0_17_34
*643 FILLER_0_17_45
*644 FILLER_0_17_53
*645 FILLER_0_17_60
*646 FILLER_0_17_68
*647 FILLER_0_17_74
*648 FILLER_0_18_108
*649 FILLER_0_18_11
*650 FILLER_0_18_116
*651 FILLER_0_18_134
*652 FILLER_0_18_15
*653 FILLER_0_18_165
*654 FILLER_0_18_175
*655 FILLER_0_18_27
*656 FILLER_0_18_3
*657 FILLER_0_18_45
*658 FILLER_0_18_71
*659 FILLER_0_18_83
*660 FILLER_0_18_85
*661 FILLER_0_18_89
*662 FILLER_0_19_111
*663 FILLER_0_19_113
*664 FILLER_0_19_125
*665 FILLER_0_19_156
*666 FILLER_0_19_167
*667 FILLER_0_19_169
*668 FILLER_0_19_3
*669 FILLER_0_19_66
*670 FILLER_0_19_7
*671 FILLER_0_19_70
*672 FILLER_0_19_87
*673 FILLER_0_19_99
*674 FILLER_0_1_129
*675 FILLER_0_1_13
*676 FILLER_0_1_155
*677 FILLER_0_1_167
*678 FILLER_0_1_169
*679 FILLER_0_1_181
*680 FILLER_0_1_193
*681 FILLER_0_1_25
*682 FILLER_0_1_29
*683 FILLER_0_1_57
*684 FILLER_0_1_63
*685 FILLER_0_1_67
*686 FILLER_0_1_77
*687 FILLER_0_1_87
*688 FILLER_0_20_103
*689 FILLER_0_20_122
*690 FILLER_0_20_134
*691 FILLER_0_20_141
*692 FILLER_0_20_147
*693 FILLER_0_20_15
*694 FILLER_0_20_177
*695 FILLER_0_20_26
*696 FILLER_0_20_37
*697 FILLER_0_20_7
*698 FILLER_0_20_81
*699 FILLER_0_20_85
*700 FILLER_0_21_110
*701 FILLER_0_21_130
*702 FILLER_0_21_135
*703 FILLER_0_21_139
*704 FILLER_0_21_147
*705 FILLER_0_21_153
*706 FILLER_0_21_166
*707 FILLER_0_21_169
*708 FILLER_0_21_192
*709 FILLER_0_21_3
*710 FILLER_0_21_43
*711 FILLER_0_21_48
*712 FILLER_0_21_76
*713 FILLER_0_21_86
*714 FILLER_0_22_101
*715 FILLER_0_22_118
*716 FILLER_0_22_126
*717 FILLER_0_22_150
*718 FILLER_0_22_168
*719 FILLER_0_22_175
*720 FILLER_0_22_185
*721 FILLER_0_22_194
*722 FILLER_0_22_26
*723 FILLER_0_22_74
*724 FILLER_0_22_80
*725 FILLER_0_23_10
*726 FILLER_0_23_122
*727 FILLER_0_23_166
*728 FILLER_0_23_3
*729 FILLER_0_23_38
*730 FILLER_0_23_55
*731 FILLER_0_23_57
*732 FILLER_0_23_83
*733 FILLER_0_23_87
*734 FILLER_0_24_13
*735 FILLER_0_24_137
*736 FILLER_0_24_157
*737 FILLER_0_24_170
*738 FILLER_0_24_18
*739 FILLER_0_24_182
*740 FILLER_0_24_186
*741 FILLER_0_24_26
*742 FILLER_0_24_29
*743 FILLER_0_24_41
*744 FILLER_0_24_68
*745 FILLER_0_24_80
*746 FILLER_0_24_85
*747 FILLER_0_24_9
*748 FILLER_0_24_97
*749 FILLER_0_25_111
*750 FILLER_0_25_144
*751 FILLER_0_25_159
*752 FILLER_0_25_167
*753 FILLER_0_25_169
*754 FILLER_0_25_177
*755 FILLER_0_25_191
*756 FILLER_0_25_3
*757 FILLER_0_25_33
*758 FILLER_0_25_55
*759 FILLER_0_25_57
*760 FILLER_0_25_61
*761 FILLER_0_25_71
*762 FILLER_0_25_90
*763 FILLER_0_26_111
*764 FILLER_0_26_122
*765 FILLER_0_26_15
*766 FILLER_0_26_160
*767 FILLER_0_26_174
*768 FILLER_0_26_19
*769 FILLER_0_26_29
*770 FILLER_0_26_3
*771 FILLER_0_26_73
*772 FILLER_0_27_104
*773 FILLER_0_27_137
*774 FILLER_0_27_146
*775 FILLER_0_27_15
*776 FILLER_0_27_193
*777 FILLER_0_27_27
*778 FILLER_0_27_3
*779 FILLER_0_27_55
*780 FILLER_0_27_57
*781 FILLER_0_27_76
*782 FILLER_0_27_92
*783 FILLER_0_28_106
*784 FILLER_0_28_112
*785 FILLER_0_28_124
*786 FILLER_0_28_133
*787 FILLER_0_28_139
*788 FILLER_0_28_141
*789 FILLER_0_28_15
*790 FILLER_0_28_153
*791 FILLER_0_28_165
*792 FILLER_0_28_170
*793 FILLER_0_28_182
*794 FILLER_0_28_188
*795 FILLER_0_28_194
*796 FILLER_0_28_27
*797 FILLER_0_28_29
*798 FILLER_0_28_3
*799 FILLER_0_28_33
*800 FILLER_0_28_37
*801 FILLER_0_28_45
*802 FILLER_0_28_56
*803 FILLER_0_28_68
*804 FILLER_0_28_73
*805 FILLER_0_28_77
*806 FILLER_0_28_81
*807 FILLER_0_28_94
*808 FILLER_0_29_122
*809 FILLER_0_29_130
*810 FILLER_0_29_15
*811 FILLER_0_29_154
*812 FILLER_0_29_166
*813 FILLER_0_29_169
*814 FILLER_0_29_181
*815 FILLER_0_29_27
*816 FILLER_0_29_3
*817 FILLER_0_29_39
*818 FILLER_0_29_47
*819 FILLER_0_29_53
*820 FILLER_0_2_108
*821 FILLER_0_2_114
*822 FILLER_0_2_118
*823 FILLER_0_2_124
*824 FILLER_0_2_133
*825 FILLER_0_2_139
*826 FILLER_0_2_15
*827 FILLER_0_2_161
*828 FILLER_0_2_173
*829 FILLER_0_2_185
*830 FILLER_0_2_27
*831 FILLER_0_2_3
*832 FILLER_0_2_36
*833 FILLER_0_2_59
*834 FILLER_0_30_122
*835 FILLER_0_30_161
*836 FILLER_0_30_173
*837 FILLER_0_30_185
*838 FILLER_0_30_193
*839 FILLER_0_30_21
*840 FILLER_0_30_27
*841 FILLER_0_30_29
*842 FILLER_0_30_37
*843 FILLER_0_30_80
*844 FILLER_0_30_9
*845 FILLER_0_30_94
*846 FILLER_0_31_128
*847 FILLER_0_31_133
*848 FILLER_0_31_15
*849 FILLER_0_31_153
*850 FILLER_0_31_165
*851 FILLER_0_31_169
*852 FILLER_0_31_181
*853 FILLER_0_31_189
*854 FILLER_0_31_27
*855 FILLER_0_31_3
*856 FILLER_0_31_39
*857 FILLER_0_31_44
*858 FILLER_0_31_57
*859 FILLER_0_31_66
*860 FILLER_0_31_72
*861 FILLER_0_31_77
*862 FILLER_0_31_94
*863 FILLER_0_32_110
*864 FILLER_0_32_119
*865 FILLER_0_32_127
*866 FILLER_0_32_135
*867 FILLER_0_32_139
*868 FILLER_0_32_141
*869 FILLER_0_32_15
*870 FILLER_0_32_153
*871 FILLER_0_32_161
*872 FILLER_0_32_167
*873 FILLER_0_32_169
*874 FILLER_0_32_181
*875 FILLER_0_32_23
*876 FILLER_0_32_27
*877 FILLER_0_32_29
*878 FILLER_0_32_3
*879 FILLER_0_32_41
*880 FILLER_0_32_51
*881 FILLER_0_32_55
*882 FILLER_0_32_57
*883 FILLER_0_32_67
*884 FILLER_0_32_79
*885 FILLER_0_32_83
*886 FILLER_0_32_85
*887 FILLER_0_3_100
*888 FILLER_0_3_129
*889 FILLER_0_3_141
*890 FILLER_0_3_155
*891 FILLER_0_3_167
*892 FILLER_0_3_169
*893 FILLER_0_3_177
*894 FILLER_0_3_181
*895 FILLER_0_3_3
*896 FILLER_0_3_36
*897 FILLER_0_3_46
*898 FILLER_0_3_55
*899 FILLER_0_3_66
*900 FILLER_0_3_75
*901 FILLER_0_3_85
*902 FILLER_0_4_107
*903 FILLER_0_4_115
*904 FILLER_0_4_138
*905 FILLER_0_4_148
*906 FILLER_0_4_15
*907 FILLER_0_4_154
*908 FILLER_0_4_174
*909 FILLER_0_4_3
*910 FILLER_0_4_56
*911 FILLER_0_4_64
*912 FILLER_0_4_76
*913 FILLER_0_4_85
*914 FILLER_0_4_95
*915 FILLER_0_5_104
*916 FILLER_0_5_108
*917 FILLER_0_5_154
*918 FILLER_0_5_163
*919 FILLER_0_5_167
*920 FILLER_0_5_30
*921 FILLER_0_5_42
*922 FILLER_0_5_70
*923 FILLER_0_5_78
*924 FILLER_0_6_10
*925 FILLER_0_6_100
*926 FILLER_0_6_138
*927 FILLER_0_6_172
*928 FILLER_0_6_176
*929 FILLER_0_6_194
*930 FILLER_0_6_22
*931 FILLER_0_6_27
*932 FILLER_0_6_29
*933 FILLER_0_6_3
*934 FILLER_0_6_40
*935 FILLER_0_6_78
*936 FILLER_0_6_91
*937 FILLER_0_7_105
*938 FILLER_0_7_111
*939 FILLER_0_7_113
*940 FILLER_0_7_12
*941 FILLER_0_7_138
*942 FILLER_0_7_16
*943 FILLER_0_7_166
*944 FILLER_0_7_169
*945 FILLER_0_7_3
*946 FILLER_0_7_51
*947 FILLER_0_7_55
*948 FILLER_0_7_57
*949 FILLER_0_7_80
*950 FILLER_0_7_97
*951 FILLER_0_8_110
*952 FILLER_0_8_118
*953 FILLER_0_8_135
*954 FILLER_0_8_139
*955 FILLER_0_8_141
*956 FILLER_0_8_15
*957 FILLER_0_8_153
*958 FILLER_0_8_170
*959 FILLER_0_8_174
*960 FILLER_0_8_184
*961 FILLER_0_8_194
*962 FILLER_0_8_21
*963 FILLER_0_8_25
*964 FILLER_0_8_29
*965 FILLER_0_8_3
*966 FILLER_0_8_41
*967 FILLER_0_8_65
*968 FILLER_0_8_81
*969 FILLER_0_9_101
*970 FILLER_0_9_109
*971 FILLER_0_9_11
*972 FILLER_0_9_119
*973 FILLER_0_9_149
*974 FILLER_0_9_166
*975 FILLER_0_9_169
*976 FILLER_0_9_192
*977 FILLER_0_9_3
*978 FILLER_0_9_35
*979 FILLER_0_9_43
*980 FILLER_0_9_47
*981 PHY_0
*982 PHY_1
*983 PHY_10
*984 PHY_11
*985 PHY_12
*986 PHY_13
*987 PHY_14
*988 PHY_15
*989 PHY_16
*990 PHY_17
*991 PHY_18
*992 PHY_19
*993 PHY_2
*994 PHY_20
*995 PHY_21
*996 PHY_22
*997 PHY_23
*998 PHY_24
*999 PHY_25
*1000 PHY_26
*1001 PHY_27
*1002 PHY_28
*1003 PHY_29
*1004 PHY_3
*1005 PHY_30
*1006 PHY_31
*1007 PHY_32
*1008 PHY_33
*1009 PHY_34
*1010 PHY_35
*1011 PHY_36
*1012 PHY_37
*1013 PHY_38
*1014 PHY_39
*1015 PHY_4
*1016 PHY_40
*1017 PHY_41
*1018 PHY_42
*1019 PHY_43
*1020 PHY_44
*1021 PHY_45
*1022 PHY_46
*1023 PHY_47
*1024 PHY_48
*1025 PHY_49
*1026 PHY_5
*1027 PHY_50
*1028 PHY_51
*1029 PHY_52
*1030 PHY_53
*1031 PHY_54
*1032 PHY_55
*1033 PHY_56
*1034 PHY_57
*1035 PHY_58
*1036 PHY_59
*1037 PHY_6
*1038 PHY_60
*1039 PHY_61
*1040 PHY_62
*1041 PHY_63
*1042 PHY_64
*1043 PHY_65
*1044 PHY_7
*1045 PHY_8
*1046 PHY_9
*1047 TAP_100
*1048 TAP_101
*1049 TAP_102
*1050 TAP_103
*1051 TAP_104
*1052 TAP_105
*1053 TAP_106
*1054 TAP_107
*1055 TAP_108
*1056 TAP_109
*1057 TAP_110
*1058 TAP_111
*1059 TAP_112
*1060 TAP_113
*1061 TAP_114
*1062 TAP_115
*1063 TAP_116
*1064 TAP_117
*1065 TAP_118
*1066 TAP_119
*1067 TAP_120
*1068 TAP_121
*1069 TAP_122
*1070 TAP_123
*1071 TAP_124
*1072 TAP_125
*1073 TAP_126
*1074 TAP_127
*1075 TAP_128
*1076 TAP_129
*1077 TAP_130
*1078 TAP_131
*1079 TAP_132
*1080 TAP_133
*1081 TAP_134
*1082 TAP_135
*1083 TAP_136
*1084 TAP_137
*1085 TAP_138
*1086 TAP_139
*1087 TAP_140
*1088 TAP_141
*1089 TAP_142
*1090 TAP_143
*1091 TAP_144
*1092 TAP_145
*1093 TAP_146
*1094 TAP_147
*1095 TAP_148
*1096 TAP_149
*1097 TAP_150
*1098 TAP_151
*1099 TAP_152
*1100 TAP_153
*1101 TAP_154
*1102 TAP_155
*1103 TAP_156
*1104 TAP_157
*1105 TAP_158
*1106 TAP_159
*1107 TAP_160
*1108 TAP_161
*1109 TAP_162
*1110 TAP_163
*1111 TAP_164
*1112 TAP_165
*1113 TAP_166
*1114 TAP_167
*1115 TAP_168
*1116 TAP_169
*1117 TAP_170
*1118 TAP_66
*1119 TAP_67
*1120 TAP_68
*1121 TAP_69
*1122 TAP_70
*1123 TAP_71
*1124 TAP_72
*1125 TAP_73
*1126 TAP_74
*1127 TAP_75
*1128 TAP_76
*1129 TAP_77
*1130 TAP_78
*1131 TAP_79
*1132 TAP_80
*1133 TAP_81
*1134 TAP_82
*1135 TAP_83
*1136 TAP_84
*1137 TAP_85
*1138 TAP_86
*1139 TAP_87
*1140 TAP_88
*1141 TAP_89
*1142 TAP_90
*1143 TAP_91
*1144 TAP_92
*1145 TAP_93
*1146 TAP_94
*1147 TAP_95
*1148 TAP_96
*1149 TAP_97
*1150 TAP_98
*1151 TAP_99
*1152 _291_
*1153 _292_
*1154 _293_
*1155 _294_
*1156 _295_
*1157 _296_
*1158 _297_
*1159 _298_
*1160 _299_
*1161 _300_
*1162 _301_
*1163 _302_
*1164 _303_
*1165 _304_
*1166 _305_
*1167 _306_
*1168 _307_
*1169 _308_
*1170 _309_
*1171 _310_
*1172 _311_
*1173 _312_
*1174 _313_
*1175 _314_
*1176 _315_
*1177 _316_
*1178 _317_
*1179 _318_
*1180 _319_
*1181 _320_
*1182 _321_
*1183 _322_
*1184 _323_
*1185 _324_
*1186 _325_
*1187 _326_
*1188 _327_
*1189 _328_
*1190 _329_
*1191 _330_
*1192 _331_
*1193 _332_
*1194 _333_
*1195 _334_
*1196 _335_
*1197 _336_
*1198 _337_
*1199 _338_
*1200 _339_
*1201 _340_
*1202 _341_
*1203 _342_
*1204 _343_
*1205 _344_
*1206 _345_
*1207 _346_
*1208 _347_
*1209 _348_
*1210 _349_
*1211 _350_
*1212 _351_
*1213 _352_
*1214 _353_
*1215 _354_
*1216 _355_
*1217 _356_
*1218 _357_
*1219 _358_
*1220 _359_
*1221 _360_
*1222 _361_
*1223 _362_
*1224 _363_
*1225 _364_
*1226 _365_
*1227 _366_
*1228 _367_
*1229 _368_
*1230 _369_
*1231 _370_
*1232 _371_
*1233 _372_
*1234 _373_
*1235 _374_
*1236 _375_
*1237 _376_
*1238 _377_
*1239 _378_
*1240 _379_
*1241 _380_
*1242 _381_
*1243 _382_
*1244 _383_
*1245 _384_
*1246 _385_
*1247 _386_
*1248 _387_
*1249 _388_
*1250 _389_
*1251 _390_
*1252 _391_
*1253 _392_
*1254 _393_
*1255 _394_
*1256 _395_
*1257 _396_
*1258 _397_
*1259 _398_
*1260 _399_
*1261 _400_
*1262 _401_
*1263 _402_
*1264 _403_
*1265 _404_
*1266 _405_
*1267 _406_
*1268 _407_
*1269 _408_
*1270 _409_
*1271 _410_
*1272 _411_
*1273 _412_
*1274 _413_
*1275 _414_
*1276 _415_
*1277 _416_
*1278 _417_
*1279 _418_
*1280 _419_
*1281 _420_
*1282 _421_
*1283 _422_
*1284 _423_
*1285 _424_
*1286 _425_
*1287 _426_
*1288 _427_
*1289 _428_
*1290 _429_
*1291 _430_
*1292 _431_
*1293 _432_
*1294 _433_
*1295 _434_
*1296 _435_
*1297 _436_
*1298 _437_
*1299 _438_
*1300 _439_
*1301 _440_
*1302 _441_
*1303 _442_
*1304 _443_
*1305 _444_
*1306 _445_
*1307 _446_
*1308 _447_
*1309 _448_
*1310 _449_
*1311 _450_
*1312 _451_
*1313 _452_
*1314 _453_
*1315 _454_
*1316 _455_
*1317 _456_
*1318 _457_
*1319 _458_
*1320 _459_
*1321 _460_
*1322 _461_
*1323 _462_
*1324 _463_
*1325 _464_
*1326 _465_
*1327 _466_
*1328 _467_
*1329 _468_
*1330 _469_
*1331 _470_
*1332 _471_
*1333 _472_
*1334 _473_
*1335 _474_
*1336 _475_
*1337 _476_
*1338 _477_
*1339 _478_
*1340 _479_
*1341 _480_
*1342 _481_
*1343 _482_
*1344 _483_
*1345 _484_
*1346 _485_
*1347 _486_
*1348 _487_
*1349 _488_
*1350 _489_
*1351 _490_
*1352 _491_
*1353 _492_
*1354 _493_
*1355 _494_
*1356 _495_
*1357 _496_
*1358 _497_
*1359 _498_
*1360 _499_
*1361 _500_
*1362 _501_
*1363 _502_
*1364 _503_
*1365 _504_
*1366 _505_
*1367 _506_
*1368 _507_
*1369 _508_
*1370 _509_
*1371 _510_
*1372 _511_
*1373 _512_
*1374 _513_
*1375 _514_
*1376 _515_
*1377 _516_
*1378 _517_
*1379 _518_
*1380 _519_
*1381 _520_
*1382 _521_
*1383 _522_
*1384 _523_
*1385 _524_
*1386 _525_
*1387 _526_
*1388 _527_
*1389 _528_
*1390 _529_
*1391 _530_
*1392 _531_
*1393 _532_
*1394 _533_
*1395 _534_
*1396 _535_
*1397 _536_
*1398 _537_
*1399 _538_
*1400 _539_
*1401 _540_
*1402 _541_
*1403 _542_
*1404 _543_
*1405 _544_
*1406 _545_
*1407 _546_
*1408 _547_
*1409 _548_
*1410 _549_
*1411 _550_
*1412 _551_
*1413 _552_
*1414 _553_
*1415 _554_
*1416 _555_
*1417 _556_
*1418 _557_
*1419 _558_
*1420 _559_
*1421 _560_
*1422 _561_
*1423 _562_
*1424 _563_
*1425 _564_
*1426 _565_
*1427 _566_
*1428 _567_
*1429 _568_
*1430 _569_
*1431 _570_
*1432 _571_
*1433 _572_
*1434 _573_
*1435 _574_
*1436 _575_
*1437 _576_
*1438 _577_
*1439 _578_
*1440 _579_
*1441 _580_
*1442 _581_
*1443 _582_
*1444 _583_
*1445 _584_
*1446 _585_
*1447 _586_
*1448 _587_
*1449 _588_
*1450 _589_
*1451 _590_
*1452 _591_
*1453 _592_
*1454 _593_
*1455 _594_
*1456 _595_
*1457 _596_
*1458 _597_
*1459 _598_
*1460 _599_
*1461 _600_
*1462 _601_
*1463 _602_
*1464 _603_
*1465 _604_
*1466 _605_
*1467 _606_
*1468 _607_
*1469 _608_
*1470 _609_
*1471 _610_
*1472 _611_
*1473 _612_
*1474 _613_
*1475 _614_
*1476 _615_
*1477 _616_
*1478 _617_
*1479 _618_
*1480 _619_
*1481 _620_
*1482 _621_
*1483 _622_
*1484 _623_
*1485 _624_
*1486 _625_
*1487 _626_
*1488 _627_
*1489 _628_
*1490 _629_
*1491 _630_
*1492 _631_
*1493 _632_
*1494 _633_
*1495 _634_
*1496 _635_
*1497 _636_
*1498 _637_
*1499 _638_
*1500 _639_
*1501 _640_
*1502 _641_
*1503 _642_
*1504 _643_
*1505 _644_
*1506 _645_
*1507 _646_
*1508 _647_
*1509 _648_
*1510 _649_
*1511 _650_
*1512 _651_
*1513 _652_
*1514 _653_
*1515 _654_
*1516 _655_
*1517 _656_
*1518 _657_
*1519 _658_
*1520 _659_
*1521 _660_
*1522 _661_
*1523 _662_
*1524 _663_
*1525 _664_
*1526 _665_
*1527 _666_
*1528 _667_
*1529 _668_
*1530 _669_
*1531 _670_
*1532 _671_
*1533 _672_
*1534 _673_
*1535 _674_
*1536 _675_
*1537 clkbuf_0_clk
*1538 clkbuf_3_0__f_clk
*1539 clkbuf_3_1__f_clk
*1540 clkbuf_3_2__f_clk
*1541 clkbuf_3_3__f_clk
*1542 clkbuf_3_4__f_clk
*1543 clkbuf_3_5__f_clk
*1544 clkbuf_3_6__f_clk
*1545 clkbuf_3_7__f_clk
*1546 hold1
*1547 hold10
*1548 hold11
*1549 hold12
*1550 hold13
*1551 hold14
*1552 hold15
*1553 hold16
*1554 hold17
*1555 hold18
*1556 hold19
*1557 hold2
*1558 hold20
*1559 hold21
*1560 hold22
*1561 hold23
*1562 hold24
*1563 hold25
*1564 hold26
*1565 hold27
*1566 hold28
*1567 hold29
*1568 hold3
*1569 hold30
*1570 hold31
*1571 hold32
*1572 hold33
*1573 hold34
*1574 hold35
*1575 hold36
*1576 hold37
*1577 hold38
*1578 hold39
*1579 hold4
*1580 hold40
*1581 hold41
*1582 hold42
*1583 hold43
*1584 hold44
*1585 hold45
*1586 hold46
*1587 hold47
*1588 hold48
*1589 hold49
*1590 hold5
*1591 hold50
*1592 hold51
*1593 hold52
*1594 hold53
*1595 hold54
*1596 hold55
*1597 hold56
*1598 hold57
*1599 hold58
*1600 hold59
*1601 hold6
*1602 hold60
*1603 hold61
*1604 hold62
*1605 hold63
*1606 hold64
*1607 hold65
*1608 hold66
*1609 hold67
*1610 hold68
*1611 hold69
*1612 hold7
*1613 hold70
*1614 hold71
*1615 hold72
*1616 hold73
*1617 hold74
*1618 hold75
*1619 hold8
*1620 hold9
*1621 input1
*1622 input10
*1623 input11
*1624 input2
*1625 input3
*1626 input4
*1627 input5
*1628 input6
*1629 input7
*1630 input8
*1631 input9
*1632 max_cap34
*1633 output12
*1634 output13
*1635 output14
*1636 output15
*1637 output16
*1638 output17
*1639 output18
*1640 output19
*1641 output20
*1642 output21
*1643 output22
*1644 output23
*1645 output24
*1646 output25
*1647 output26
*1648 output27
*1649 output28
*1650 output29
*1651 output30
*1652 output31
*1653 output32
*1654 output33

*PORTS
almost_empty O
almost_full O
clk I
din[0] I
din[1] I
din[2] I
din[3] I
din[4] I
din[5] I
din[6] I
din[7] I
dout[0] O
dout[1] O
dout[2] O
dout[3] O
dout[4] O
dout[5] O
dout[6] O
dout[7] O
empty O
full O
overrun O
rd I
rst I
underrun O
unused[0] O
unused[1] O
unused[2] O
unused[3] O
used[0] O
used[1] O
used[2] O
used[3] O
wr I

*D_NET *3 0.000735836
*CONN
*P almost_empty O
*I *1633:X O *D sky130_fd_sc_hd__clkbuf_4
*CAP
1 almost_empty 9.83601e-05
2 *1633:X 0.000269558
3 *3:10 0.000367918
*RES
1 *1633:X *3:10 42.0289 
2 *3:10 almost_empty 8.32853 
*END

*D_NET *4 0.00131514
*CONN
*P almost_full O
*I *1634:X O *D sky130_fd_sc_hd__clkbuf_4
*CAP
1 almost_full 0.000591917
2 *1634:X 0.000591917
3 almost_full *437:135 0.000131304
*RES
1 *1634:X almost_full 49.9314 
*END

*D_NET *5 0.0118518
*CONN
*P clk I
*I *1537:A I *D sky130_fd_sc_hd__clkbuf_16
*CAP
1 clk 0.00554837
2 *1537:A 0
3 *5:21 0.00554837
4 *5:21 *153:12 0
5 *5:21 *163:189 0
6 *5:21 *258:48 0.000221184
7 *5:21 *299:22 0
8 *5:21 *328:79 0
9 *5:21 *328:113 1.69779e-05
10 *5:21 *430:14 0
11 *5:21 *443:8 0.000193388
12 *5:21 *499:37 4.68714e-05
13 *5:21 *499:44 0.000224599
14 *5:21 *499:63 5.20793e-05
*RES
1 clk *5:21 39.3288 
2 *5:21 *1537:A 38 
*END

*D_NET *6 0.00126037
*CONN
*P din[0] I
*I *1621:A I *D sky130_fd_sc_hd__clkbuf_2
*CAP
1 din[0] 0.000530682
2 *1621:A 0
3 *6:9 0.000530682
4 *6:9 *30:8 0
5 *6:9 *401:6 5.70419e-05
6 *6:9 *425:71 0.00014196
*RES
1 din[0] *6:9 27.035 
2 *6:9 *1621:A 23 
*END

*D_NET *7 0.0021219
*CONN
*P din[1] I
*I *1624:A I *D sky130_fd_sc_hd__buf_2
*CAP
1 din[1] 0.00101086
2 *1624:A 0
3 *7:9 0.00101086
4 *7:9 *437:135 0.00010018
*RES
1 din[1] *7:9 36.5636 
2 *7:9 *1624:A 23 
*END

*D_NET *8 0.00128685
*CONN
*P din[2] I
*I *1625:A I *D sky130_fd_sc_hd__clkbuf_2
*CAP
1 din[2] 0.000519337
2 *1625:A 0
3 *8:9 0.000519337
4 *8:9 *401:8 4.95081e-05
5 *8:9 *425:71 0.00014196
6 *8:9 *433:10 5.67058e-05
*RES
1 din[2] *8:9 27.035 
2 *8:9 *1625:A 23 
*END

*D_NET *9 0.00130202
*CONN
*P din[3] I
*I *1626:A I *D sky130_fd_sc_hd__buf_2
*CAP
1 din[3] 0.000651011
2 *1626:A 0.000651011
*RES
1 din[3] *1626:A 49.9746 
*END

*D_NET *10 0.00069175
*CONN
*P din[4] I
*I *1627:A I *D sky130_fd_sc_hd__clkbuf_2
*CAP
1 din[4] 0.000345875
2 *1627:A 0
3 *10:13 0.000345875
4 *10:13 *333:22 0
*RES
1 din[4] *10:13 27.7096 
2 *10:13 *1627:A 23 
*END

*D_NET *11 0.000567338
*CONN
*P din[5] I
*I *1628:A I *D sky130_fd_sc_hd__clkbuf_2
*CAP
1 din[5] 0.000283669
2 *1628:A 0.000283669
3 *1628:A *431:16 0
*RES
1 din[5] *1628:A 49.2626 
*END

*D_NET *12 0.00136718
*CONN
*P din[6] I
*I *1629:A I *D sky130_fd_sc_hd__clkbuf_2
*CAP
1 din[6] 0.000683591
2 *1629:A 0
3 *12:9 0.000683591
*RES
1 din[6] *12:9 29.21 
2 *12:9 *1629:A 23 
*END

*D_NET *13 0.00101131
*CONN
*P din[7] I
*I *1630:A I *D sky130_fd_sc_hd__clkbuf_2
*CAP
1 din[7] 0.000455621
2 *1630:A 0.000455621
3 *1630:A *426:39 0.000100069
*RES
1 din[7] *1630:A 47.4457 
*END

*D_NET *14 0.000875646
*CONN
*P dout[0] O
*I *1635:X O *D sky130_fd_sc_hd__clkbuf_4
*CAP
1 dout[0] 6.46639e-05
2 *1635:X 0.000373159
3 *14:12 0.000437823
*RES
1 *1635:X *14:12 43.8311 
2 *14:12 dout[0] 8.24267 
*END

*D_NET *15 0.000617759
*CONN
*P dout[1] O
*I *1636:X O *D sky130_fd_sc_hd__buf_2
*CAP
1 dout[1] 0.00027011
2 *1636:X 0.00027011
3 dout[1] *417:8 2.43996e-05
4 dout[1] *431:16 5.31385e-05
*RES
1 *1636:X dout[1] 47.6028 
*END

*D_NET *16 0.00183649
*CONN
*P dout[2] O
*I *1637:X O *D sky130_fd_sc_hd__clkbuf_4
*CAP
1 dout[2] 0.000480781
2 *1637:X 0.000437461
3 *16:8 0.000918243
*RES
1 *1637:X *16:8 45.7679 
2 *16:8 dout[2] 10.8129 
*END

*D_NET *17 0.00116437
*CONN
*P dout[3] O
*I *1638:X O *D sky130_fd_sc_hd__clkbuf_4
*CAP
1 dout[3] 0.000541391
2 *1638:X 0.000541391
3 dout[3] *425:71 8.15864e-05
*RES
1 *1638:X dout[3] 48.9786 
*END

*D_NET *18 0.00107162
*CONN
*P dout[4] O
*I *1639:X O *D sky130_fd_sc_hd__clkbuf_4
*CAP
1 dout[4] 0.00050729
2 *1639:X 0.00050729
3 dout[4] *35:10 0
4 dout[4] *437:135 5.70419e-05
*RES
1 *1639:X dout[4] 48.5021 
*END

*D_NET *19 0.000671811
*CONN
*P dout[5] O
*I *1640:X O *D sky130_fd_sc_hd__clkbuf_4
*CAP
1 dout[5] 0.000335905
2 *1640:X 0.000335905
*RES
1 *1640:X dout[5] 49.6532 
*END

*D_NET *20 0.000940781
*CONN
*P dout[6] O
*I *1641:X O *D sky130_fd_sc_hd__clkbuf_4
*CAP
1 dout[6] 0.000331999
2 *1641:X 0.000331999
3 dout[6] *1641:A 8.53726e-05
4 dout[6] *423:8 5.79413e-06
5 dout[6] *477:12 0.000185616
*RES
1 *1641:X dout[6] 49.3635 
*END

*D_NET *21 0.000832208
*CONN
*P dout[7] O
*I *1642:X O *D sky130_fd_sc_hd__clkbuf_4
*CAP
1 dout[7] 0.000414721
2 *1642:X 0.000414721
3 dout[7] *495:8 2.76611e-06
*RES
1 *1642:X dout[7] 47.1143 
*END

*D_NET *22 0.00154934
*CONN
*P empty O
*I *1643:X O *D sky130_fd_sc_hd__clkbuf_4
*CAP
1 empty 0.000419051
2 *1643:X 0.000355619
3 *22:8 0.00077467
*RES
1 *1643:X *22:8 43.8621 
2 *22:8 empty 9.40429 
*END

*D_NET *23 0.00107109
*CONN
*P full O
*I *1644:X O *D sky130_fd_sc_hd__buf_2
*CAP
1 full 0.000309357
2 *1644:X 0.000226189
3 *23:8 0.000535546
*RES
1 *1644:X *23:8 42.5468 
2 *23:8 full 9.1872 
*END

*D_NET *24 0.000740866
*CONN
*P overrun O
*I *1645:X O *D sky130_fd_sc_hd__clkbuf_4
*CAP
1 overrun 0.000370433
2 *1645:X 0.000370433
*RES
1 *1645:X overrun 45.9957 
*END

*D_NET *25 0.000877169
*CONN
*P rd I
*I *1631:A I *D sky130_fd_sc_hd__buf_2
*CAP
1 rd 0.000438585
2 *1631:A 0.000438585
*RES
1 rd *1631:A 47.3214 
*END

*D_NET *26 0.00087874
*CONN
*P rst I
*I *1622:A I *D sky130_fd_sc_hd__buf_1
*CAP
1 rst 0.00043937
2 *1622:A 0.00043937
*RES
1 rst *1622:A 47.4664 
*END

*D_NET *27 0.000860167
*CONN
*P underrun O
*I *1646:X O *D sky130_fd_sc_hd__buf_2
*CAP
1 underrun 0.000347393
2 *1646:X 0.000347393
3 underrun *1611:A 2.31209e-05
4 underrun *413:12 5.44006e-05
5 underrun *428:10 8.78597e-05
*RES
1 *1646:X underrun 49.3635 
*END

*D_NET *28 0.00211802
*CONN
*P unused[0] O
*I *1647:X O *D sky130_fd_sc_hd__clkbuf_4
*CAP
1 unused[0] 0.000461407
2 *1647:X 0.00033997
3 *28:8 0.000801377
4 *28:8 *1557:A 0.000185434
5 *28:8 *426:39 0.000329835
*RES
1 *1647:X *28:8 43.8621 
2 *28:8 unused[0] 11.4136 
*END

*D_NET *29 0.000635185
*CONN
*P unused[1] O
*I *1648:X O *D sky130_fd_sc_hd__clkbuf_4
*CAP
1 unused[1] 9.83601e-05
2 *1648:X 0.000219232
3 *29:12 0.000317593
4 *29:12 *1648:A 0
*RES
1 *1648:X *29:12 49.9046 
2 *29:12 unused[1] 0.328533 
*END

*D_NET *30 0.00103856
*CONN
*P unused[2] O
*I *1649:X O *D sky130_fd_sc_hd__buf_2
*CAP
1 unused[2] 0.000231796
2 *1649:X 0.000287485
3 *30:8 0.00051928
4 *6:9 *30:8 0
*RES
1 *1649:X *30:8 43.2511 
2 *30:8 unused[2] 8.84373 
*END

*D_NET *31 0.00138109
*CONN
*P unused[3] O
*I *1650:X O *D sky130_fd_sc_hd__clkbuf_4
*CAP
1 unused[3] 0.000339355
2 *1650:X 0.000255874
3 *31:12 0.000595229
4 *31:12 *425:67 0.00019063
*RES
1 *1650:X *31:12 42.4018 
2 *31:12 unused[3] 7.81964 
*END

*D_NET *32 0.00237408
*CONN
*P used[0] O
*I *1651:X O *D sky130_fd_sc_hd__clkbuf_4
*CAP
1 used[0] 0.00043927
2 *1651:X 0.000415094
3 *32:8 0.000854364
4 *32:8 *425:67 0.000665349
*RES
1 *1651:X *32:8 45.2914 
2 *32:8 used[0] 9.40429 
*END

*D_NET *33 0.00133214
*CONN
*P used[1] O
*I *1652:X O *D sky130_fd_sc_hd__clkbuf_4
*CAP
1 used[1] 0.000570455
2 *1652:X 0.000570455
3 used[1] *1395:S 0.000187015
4 used[1] *488:90 4.21594e-06
*RES
1 *1652:X used[1] 49.7657 
*END

*D_NET *34 0.000713829
*CONN
*P used[2] O
*I *1653:X O *D sky130_fd_sc_hd__clkbuf_4
*CAP
1 used[2] 8.56082e-05
2 *1653:X 0.000271306
3 *34:10 0.000356915
4 *34:10 *1653:A 0
*RES
1 *1653:X *34:10 42.0289 
2 *34:10 used[2] 8.32853 
*END

*D_NET *35 0.00117765
*CONN
*P used[3] O
*I *1654:X O *D sky130_fd_sc_hd__clkbuf_4
*CAP
1 used[3] 0.000393472
2 *1654:X 0.000195355
3 *35:10 0.000588827
4 dout[4] *35:10 0
*RES
1 *1654:X *35:10 49.8425 
2 *35:10 used[3] 1.50827 
*END

*D_NET *36 0.000595533
*CONN
*P wr I
*I *1623:A I *D sky130_fd_sc_hd__clkbuf_2
*CAP
1 wr 0.000297767
2 *1623:A 0.000297767
*RES
1 wr *1623:A 49.2626 
*END

*D_NET *37 0.00294
*CONN
*I *1462:RESET_B I *D sky130_fd_sc_hd__dfrtp_1
*I *1399:C I *D sky130_fd_sc_hd__and4_1
*I *1325:C I *D sky130_fd_sc_hd__and4b_1
*I *1306:Y O *D sky130_fd_sc_hd__inv_2
*CAP
1 *1462:RESET_B 2.73732e-05
2 *1399:C 0.000253445
3 *1325:C 0
4 *1306:Y 0.000109603
5 *37:10 0.000513952
6 *37:6 0.000397483
7 *1399:C *1345:A_N 2.6373e-05
8 *1399:C *1399:D 5.5792e-05
9 *1399:C *148:42 3.90213e-05
10 *1399:C *255:8 3.98401e-05
11 *1399:C *268:16 0.000180888
12 *1399:C *297:12 4.05745e-05
13 *1399:C *429:16 0.000284642
14 *1399:C *514:59 5.61255e-06
15 *1462:RESET_B *288:38 1.12709e-05
16 *37:6 *51:10 0.000184527
17 *37:6 *288:28 8.46456e-05
18 *37:6 *288:38 1.14876e-05
19 *37:10 *148:42 0.000137754
20 *37:10 *426:8 0
21 *37:10 *429:16 0.00053572
22 *37:10 *514:10 0
*RES
1 *1306:Y *37:6 26.0036 
2 *37:6 *37:10 22.1879 
3 *37:10 *1325:C 38 
4 *37:10 *1399:C 44.5664 
5 *37:6 *1462:RESET_B 0.548929 
*END

*D_NET *38 0.000414216
*CONN
*I *1463:RESET_B I *D sky130_fd_sc_hd__dfrtp_1
*I *1308:Y O *D sky130_fd_sc_hd__inv_2
*CAP
1 *1463:RESET_B 0
2 *1308:Y 5.77949e-05
3 *38:8 5.77949e-05
4 *38:8 *254:127 0.000199125
5 *38:8 *439:8 9.95004e-05
*RES
1 *1308:Y *38:8 40.61 
2 *38:8 *1463:RESET_B 15 
*END

*D_NET *39 0.000212061
*CONN
*I *1464:RESET_B I *D sky130_fd_sc_hd__dfrtp_1
*I *1309:Y O *D sky130_fd_sc_hd__inv_2
*CAP
1 *1464:RESET_B 0
2 *1309:Y 4.79343e-05
3 *39:8 4.79343e-05
4 *39:8 *236:8 5.80963e-05
5 *39:8 *431:16 5.80963e-05
*RES
1 *1309:Y *39:8 39.5536 
2 *39:8 *1464:RESET_B 15 
*END

*D_NET *40 0.000413632
*CONN
*I *1465:RESET_B I *D sky130_fd_sc_hd__dfrtp_1
*I *1310:Y O *D sky130_fd_sc_hd__inv_2
*CAP
1 *1465:RESET_B 0
2 *1310:Y 5.5783e-05
3 *40:8 5.5783e-05
4 *40:8 *254:113 0.000199701
5 *40:8 *431:16 0.000102365
*RES
1 *1310:Y *40:8 40.61 
2 *40:8 *1465:RESET_B 15 
*END

*D_NET *41 0.00051183
*CONN
*I *1466:RESET_B I *D sky130_fd_sc_hd__dfrtp_1
*I *1311:Y O *D sky130_fd_sc_hd__inv_2
*CAP
1 *1466:RESET_B 7.87267e-05
2 *1311:Y 0.00015794
3 *41:8 0.000236667
4 *1466:RESET_B *418:12 3.84966e-05
5 *41:8 *254:46 0
*RES
1 *1311:Y *41:8 40.61 
2 *41:8 *1466:RESET_B 16.5018 
*END

*D_NET *42 0.00020676
*CONN
*I *1467:RESET_B I *D sky130_fd_sc_hd__dfrtp_1
*I *1312:Y O *D sky130_fd_sc_hd__inv_2
*CAP
1 *1467:RESET_B 0
2 *1312:Y 0.000100994
3 *42:8 0.000100994
4 *42:8 *1467:CLK 0
5 *42:8 *211:16 4.77164e-06
6 *42:8 *309:89 0
*RES
1 *1312:Y *42:8 39.5536 
2 *42:8 *1467:RESET_B 15 
*END

*D_NET *43 0.000531774
*CONN
*I *1468:RESET_B I *D sky130_fd_sc_hd__dfrtp_1
*I *1313:Y O *D sky130_fd_sc_hd__inv_2
*CAP
1 *1468:RESET_B 0
2 *1313:Y 0.000204557
3 *43:10 0.000204557
4 *43:10 *1232:A 8.1796e-05
5 *43:10 *1492:CLK 0
6 *43:10 *163:45 0
7 *43:10 *204:10 4.08641e-05
*RES
1 *1313:Y *43:10 41.8321 
2 *43:10 *1468:RESET_B 15 
*END

*D_NET *44 0.000278037
*CONN
*I *1469:RESET_B I *D sky130_fd_sc_hd__dfrtp_1
*I *1314:Y O *D sky130_fd_sc_hd__inv_2
*CAP
1 *1469:RESET_B 0
2 *1314:Y 0.000104591
3 *44:8 0.000104591
4 *44:8 *196:8 6.88552e-05
5 *44:8 *254:46 0
*RES
1 *1314:Y *44:8 40.61 
2 *44:8 *1469:RESET_B 15 
*END

*D_NET *45 0.000305327
*CONN
*I *1470:RESET_B I *D sky130_fd_sc_hd__dfrtp_1
*I *1315:Y O *D sky130_fd_sc_hd__inv_2
*CAP
1 *1470:RESET_B 0
2 *1315:Y 3.7137e-05
3 *45:8 3.7137e-05
4 *45:8 *254:127 0.000115526
5 *45:8 *408:10 0.000115526
*RES
1 *1315:Y *45:8 39.5536 
2 *45:8 *1470:RESET_B 15 
*END

*D_NET *46 0.00077566
*CONN
*I *1471:RESET_B I *D sky130_fd_sc_hd__dfrtp_1
*I *1316:Y O *D sky130_fd_sc_hd__inv_2
*CAP
1 *1471:RESET_B 0.000211696
2 *1316:Y 0.000126199
3 *46:8 0.000337895
4 *1471:RESET_B *424:12 9.987e-05
5 *46:8 *424:25 0
*RES
1 *1316:Y *46:8 40.2579 
2 *46:8 *1471:RESET_B 19.3604 
*END

*D_NET *47 0.000428657
*CONN
*I *1472:RESET_B I *D sky130_fd_sc_hd__dfrtp_1
*I *1317:Y O *D sky130_fd_sc_hd__inv_2
*CAP
1 *1472:RESET_B 0
2 *1317:Y 6.66296e-05
3 *47:8 6.66296e-05
4 *47:8 *268:22 0.00019654
5 *47:8 *499:19 9.88575e-05
*RES
1 *1317:Y *47:8 40.61 
2 *47:8 *1472:RESET_B 15 
*END

*D_NET *48 0.00140013
*CONN
*I *1473:RESET_B I *D sky130_fd_sc_hd__dfrtp_1
*I *1318:Y O *D sky130_fd_sc_hd__inv_2
*CAP
1 *1473:RESET_B 0
2 *1318:Y 0.000321398
3 *48:10 0.000321398
4 *48:10 *160:12 0.000321352
5 *48:10 *329:105 3.3746e-05
6 *48:10 *512:23 0.000212368
7 *48:10 *512:44 0.00018987
*RES
1 *1318:Y *48:10 45.0014 
2 *48:10 *1473:RESET_B 15 
*END

*D_NET *49 0.000522994
*CONN
*I *1474:RESET_B I *D sky130_fd_sc_hd__dfrtp_4
*I *1319:Y O *D sky130_fd_sc_hd__inv_2
*CAP
1 *1474:RESET_B 0
2 *1319:Y 0.000147125
3 *49:10 0.000147125
4 *49:10 *159:33 0.00019654
5 *49:10 *238:14 3.22051e-05
*RES
1 *1319:Y *49:10 41.2314 
2 *49:10 *1474:RESET_B 15 
*END

*D_NET *50 0.00060516
*CONN
*I *1475:RESET_B I *D sky130_fd_sc_hd__dfrtp_2
*I *1320:Y O *D sky130_fd_sc_hd__inv_2
*CAP
1 *1475:RESET_B 9.63736e-05
2 *1320:Y 7.98301e-05
3 *50:8 0.000176204
4 *1475:RESET_B *254:16 0.000178728
5 *50:8 *76:10 4.80826e-05
6 *50:8 *244:66 2.59423e-05
*RES
1 *1320:Y *50:8 39.5536 
2 *50:8 *1475:RESET_B 16.9782 
*END

*D_NET *51 0.0013296
*CONN
*I *1476:RESET_B I *D sky130_fd_sc_hd__dfrtp_4
*I *1321:Y O *D sky130_fd_sc_hd__inv_2
*CAP
1 *1476:RESET_B 0.000151127
2 *1321:Y 0.00030345
3 *51:10 0.000454576
4 *51:10 *1170:B 5.79559e-05
5 *51:10 *288:28 9.24795e-06
6 *51:10 *402:29 2.47321e-05
7 *51:10 *413:55 3.21327e-05
8 *51:10 *429:16 0.000111852
9 *37:6 *51:10 0.000184527
*RES
1 *1321:Y *51:10 43.0336 
2 *51:10 *1476:RESET_B 16.9782 
*END

*D_NET *52 0.000752573
*CONN
*I *1477:RESET_B I *D sky130_fd_sc_hd__dfrtp_4
*I *1322:Y O *D sky130_fd_sc_hd__inv_2
*CAP
1 *1477:RESET_B 0
2 *1322:Y 0.000182657
3 *52:12 0.000182657
4 *52:12 *1168:A 4.21594e-06
5 *52:12 *144:10 6.53445e-05
6 *52:12 *149:16 6.60691e-05
7 *52:12 *150:8 0.000196549
8 *52:12 *244:130 2.82839e-05
9 *52:12 *515:30 2.67971e-05
*RES
1 *1322:Y *52:12 42.6814 
2 *52:12 *1477:RESET_B 15 
*END

*D_NET *53 0.000326146
*CONN
*I *1478:RESET_B I *D sky130_fd_sc_hd__dfrtp_4
*I *1323:Y O *D sky130_fd_sc_hd__inv_2
*CAP
1 *1478:RESET_B 0
2 *1323:Y 0.000132246
3 *53:8 0.000132246
4 *53:8 *1323:A 0
5 *53:8 *244:21 0
6 *53:8 *288:28 6.16531e-05
7 *53:8 *499:8 0
*RES
1 *1323:Y *53:8 40.2579 
2 *53:8 *1478:RESET_B 15 
*END

*D_NET *54 0.000703805
*CONN
*I *1479:RESET_B I *D sky130_fd_sc_hd__dfrtp_2
*I *1324:Y O *D sky130_fd_sc_hd__inv_2
*CAP
1 *1479:RESET_B 0
2 *1324:Y 0.000346137
3 *54:12 0.000346137
4 *54:12 *329:24 1.15307e-05
*RES
1 *1324:Y *54:12 44.1936 
2 *54:12 *1479:RESET_B 15 
*END

*D_NET *55 0.0018545
*CONN
*I *1454:D I *D sky130_fd_sc_hd__dfxtp_1
*I *1291:X O *D sky130_fd_sc_hd__clkbuf_1
*CAP
1 *1454:D 3.06206e-05
2 *1291:X 0.000333898
3 *55:10 0.000364519
4 *1454:D *1329:A1 0.000114212
5 *1454:D *335:110 0.000110526
6 *55:10 *1261:B1 0.000270173
7 *55:10 *160:150 3.81554e-05
8 *55:10 *309:54 0.000368698
9 *55:10 *337:25 0.000223698
*RES
1 *1291:X *55:10 45.9543 
2 *55:10 *1454:D 39.2584 
*END

*D_NET *56 0.000706601
*CONN
*I *1455:D I *D sky130_fd_sc_hd__dfxtp_1
*I *1293:X O *D sky130_fd_sc_hd__clkbuf_1
*CAP
1 *1455:D 0.000174562
2 *1293:X 5.22013e-05
3 *56:8 0.000226764
4 *1455:D *1455:CLK 0.000139357
5 *56:8 *242:14 5.80963e-05
6 *56:8 *438:23 5.56203e-05
*RES
1 *1293:X *56:8 39.5536 
2 *56:8 *1455:D 40.843 
*END

*D_NET *57 0.00146924
*CONN
*I *1456:D I *D sky130_fd_sc_hd__dfxtp_1
*I *1295:X O *D sky130_fd_sc_hd__clkbuf_1
*CAP
1 *1456:D 0.000194497
2 *1295:X 0.000161188
3 *57:8 0.000355686
4 *1456:D *395:12 3.06803e-05
5 *57:8 *172:98 0.000363595
6 *57:8 *434:12 0.000363595
*RES
1 *1295:X *57:8 43.075 
2 *57:8 *1456:D 41.0502 
*END

*D_NET *58 0.000481763
*CONN
*I *1457:D I *D sky130_fd_sc_hd__dfxtp_1
*I *1297:X O *D sky130_fd_sc_hd__clkbuf_1
*CAP
1 *1457:D 1.13828e-05
2 *1297:X 0.000121565
3 *58:8 0.000132948
4 *1457:D *1457:CLK 5.92579e-05
5 *1457:D *158:200 6.09588e-05
6 *58:8 *158:83 2.76611e-06
7 *58:8 *158:91 0
8 *58:8 *249:10 9.28842e-05
*RES
1 *1297:X *58:8 40.61 
2 *58:8 *1457:D 38.668 
*END

*D_NET *59 0.000418542
*CONN
*I *1458:D I *D sky130_fd_sc_hd__dfxtp_1
*I *1299:X O *D sky130_fd_sc_hd__clkbuf_1
*CAP
1 *1458:D 4.40241e-05
2 *1299:X 5.43664e-05
3 *59:8 9.83904e-05
4 *1458:D *1458:CLK 5.73018e-05
5 *59:8 *1458:CLK 4.74249e-05
6 *59:8 *333:10 5.75756e-06
7 *59:8 *365:10 0.000111277
*RES
1 *1299:X *59:8 39.5536 
2 *59:8 *1458:D 38.668 
*END

*D_NET *60 0.000682835
*CONN
*I *1459:D I *D sky130_fd_sc_hd__dfxtp_1
*I *1301:X O *D sky130_fd_sc_hd__clkbuf_1
*CAP
1 *1459:D 7.314e-06
2 *1301:X 0.000154339
3 *60:10 0.000161653
4 *1459:D *1221:A1 1.00591e-05
5 *1459:D *190:8 4.9054e-06
6 *60:10 *165:90 0.000163256
7 *60:10 *245:102 9.79925e-05
8 *60:10 *335:99 1.97402e-05
9 *60:10 *335:106 6.35755e-05
*RES
1 *1301:X *60:10 41.3557 
2 *60:10 *1459:D 38.1916 
*END

*D_NET *61 0.00042216
*CONN
*I *1460:D I *D sky130_fd_sc_hd__dfxtp_1
*I *1303:X O *D sky130_fd_sc_hd__clkbuf_1
*CAP
1 *1460:D 6.42235e-05
2 *1303:X 6.42235e-05
3 *1460:D *1303:A 1.35999e-05
4 *1460:D *163:222 0.000130114
5 *1460:D *331:105 1.73995e-05
6 *1460:D *331:114 0.000132599
*RES
1 *1303:X *1460:D 48.3873 
*END

*D_NET *62 0.000422689
*CONN
*I *1461:D I *D sky130_fd_sc_hd__dfxtp_1
*I *1305:X O *D sky130_fd_sc_hd__clkbuf_1
*CAP
1 *1461:D 1.13183e-05
2 *1305:X 0.000150663
3 *62:10 0.000161982
4 *1461:D *413:22 1.64354e-05
5 *62:10 *253:8 8.22907e-05
6 *62:10 *331:76 0
*RES
1 *1305:X *62:10 40.8793 
2 *62:10 *1461:D 38.1916 
*END

*D_NET *63 0.0019557
*CONN
*I *1462:D I *D sky130_fd_sc_hd__dfrtp_1
*I *1272:X O *D sky130_fd_sc_hd__a21o_1
*CAP
1 *1462:D 0
2 *1272:X 0.000635411
3 *63:10 0.000635411
4 *63:10 *1557:A 9.8971e-06
5 *63:10 *296:10 0
6 *63:10 *426:8 0
7 *63:10 *427:12 1.39317e-05
8 *63:10 *429:16 0.000661051
*RES
1 *1272:X *63:10 48.15 
2 *63:10 *1462:D 38 
*END

*D_NET *64 0.000778833
*CONN
*I *1463:D I *D sky130_fd_sc_hd__dfrtp_1
*I *1270:X O *D sky130_fd_sc_hd__a21o_1
*CAP
1 *1463:D 4.8927e-05
2 *1270:X 0.000256422
3 *64:10 0.000305349
4 *64:10 *1208:A 3.66555e-05
5 *64:10 *160:113 8.57485e-05
6 *64:10 *183:10 3.5781e-06
7 *64:10 *299:129 2.95423e-05
8 *64:10 *332:96 1.26098e-05
*RES
1 *1270:X *64:10 42.0807 
2 *64:10 *1463:D 38.6214 
*END

*D_NET *65 0.00111979
*CONN
*I *1464:D I *D sky130_fd_sc_hd__dfrtp_1
*I *1268:X O *D sky130_fd_sc_hd__clkbuf_1
*CAP
1 *1464:D 0.000187958
2 *1268:X 0.00024536
3 *65:8 0.000433317
4 *1464:D *1402:A0 7.87147e-05
5 *65:8 *236:8 0.000174438
*RES
1 *1268:X *65:8 42.7229 
2 *65:8 *1464:D 41.48 
*END

*D_NET *66 0.000427557
*CONN
*I *1465:D I *D sky130_fd_sc_hd__dfrtp_1
*I *1259:X O *D sky130_fd_sc_hd__clkbuf_1
*CAP
1 *1465:D 0.000115426
2 *1259:X 0.000115426
3 *1465:D *1300:A1 1.21972e-05
4 *1465:D *189:10 3.59733e-05
5 *1465:D *227:10 9.23758e-05
6 *1465:D *335:99 2.93335e-05
7 *1465:D *466:18 2.68258e-05
*RES
1 *1259:X *1465:D 48.5479 
*END

*D_NET *67 0.000342385
*CONN
*I *1466:D I *D sky130_fd_sc_hd__dfrtp_1
*I *1250:X O *D sky130_fd_sc_hd__clkbuf_1
*CAP
1 *1466:D 0
2 *1250:X 0.000136004
3 *67:10 0.000136004
4 *67:10 *430:29 7.03766e-05
*RES
1 *1250:X *67:10 40.5271 
2 *67:10 *1466:D 38 
*END

*D_NET *68 0.000352737
*CONN
*I *1467:D I *D sky130_fd_sc_hd__dfrtp_1
*I *1241:X O *D sky130_fd_sc_hd__clkbuf_1
*CAP
1 *1467:D 0.000125322
2 *1241:X 0.000125322
3 *1467:D *1423:A 0
4 *1467:D *309:95 0.000102093
*RES
1 *1241:X *1467:D 48.5479 
*END

*D_NET *69 0.000573417
*CONN
*I *1468:D I *D sky130_fd_sc_hd__dfrtp_1
*I *1232:X O *D sky130_fd_sc_hd__clkbuf_1
*CAP
1 *1468:D 0
2 *1232:X 0.000196412
3 *69:10 0.000196412
4 *69:10 *1640:A 3.87132e-05
5 *69:10 *430:29 0.000141879
*RES
1 *1232:X *69:10 41.48 
2 *69:10 *1468:D 38 
*END

*D_NET *70 0.000373134
*CONN
*I *1469:D I *D sky130_fd_sc_hd__dfrtp_1
*I *1223:X O *D sky130_fd_sc_hd__clkbuf_1
*CAP
1 *1469:D 3.69484e-05
2 *1223:X 7.86745e-05
3 *70:8 0.000115623
4 *70:8 *430:29 0.000141888
*RES
1 *1223:X *70:8 39.9057 
2 *70:8 *1469:D 38.6214 
*END

*D_NET *71 0.000534042
*CONN
*I *1470:D I *D sky130_fd_sc_hd__dfrtp_1
*I *1214:X O *D sky130_fd_sc_hd__clkbuf_1
*CAP
1 *1470:D 1.88921e-05
2 *1214:X 0.000112864
3 *71:10 0.000131757
4 *1470:D *163:222 5.55238e-05
5 *1470:D *331:129 2.93431e-05
6 *71:10 *163:230 1.51481e-05
7 *71:10 *413:22 5.8118e-05
8 *71:10 *488:16 0.000112396
*RES
1 *1214:X *71:10 40.175 
2 *71:10 *1470:D 38.6214 
*END

*D_NET *72 0.000447483
*CONN
*I *1471:D I *D sky130_fd_sc_hd__dfrtp_1
*I *1205:X O *D sky130_fd_sc_hd__clkbuf_1
*CAP
1 *1471:D 0
2 *1205:X 0.000112362
3 *72:10 0.000112362
4 *72:10 *331:38 0.000141869
5 *72:10 *367:21 7.03663e-05
6 *72:10 *413:22 1.05235e-05
*RES
1 *1205:X *72:10 40.5271 
2 *72:10 *1471:D 38 
*END

*D_NET *73 0.000319636
*CONN
*I *1472:D I *D sky130_fd_sc_hd__dfrtp_1
*I *1187:X O *D sky130_fd_sc_hd__xor2_1
*CAP
1 *1472:D 5.54643e-05
2 *1187:X 5.54643e-05
3 *1472:D *1187:B 0.000106318
4 *1472:D *159:14 0.000102389
*RES
1 *1187:X *1472:D 48.0507 
*END

*D_NET *74 0.00116062
*CONN
*I *1473:D I *D sky130_fd_sc_hd__dfrtp_1
*I *1185:X O *D sky130_fd_sc_hd__o21ba_1
*CAP
1 *1473:D 0.000155849
2 *1185:X 0.000201945
3 *74:10 0.000357794
4 *1473:D *1473:CLK 9.5148e-05
5 *1473:D *437:62 0
6 *74:10 *1178:B 8.57485e-05
7 *74:10 *1186:B1 8.57485e-05
8 *74:10 *152:95 0.000178391
*RES
1 *1185:X *74:10 41.2521 
2 *74:10 *1473:D 40.5479 
*END

*D_NET *75 0.000728892
*CONN
*I *1474:D I *D sky130_fd_sc_hd__dfrtp_4
*I *1183:X O *D sky130_fd_sc_hd__o21ba_1
*CAP
1 *1474:D 0
2 *1183:X 0.000293519
3 *75:10 0.000293519
4 *75:10 *238:35 3.21239e-05
5 *75:10 *418:14 0.00010973
*RES
1 *1183:X *75:10 42.0807 
2 *75:10 *1474:D 38 
*END

*D_NET *76 0.00120786
*CONN
*I *1475:D I *D sky130_fd_sc_hd__dfrtp_2
*I *1180:X O *D sky130_fd_sc_hd__xor2_1
*CAP
1 *1475:D 2.74109e-05
2 *1180:X 0.000358594
3 *76:10 0.000386005
4 *1475:D *254:16 5.56279e-05
5 *76:10 *159:14 0.000187345
6 *76:10 *329:18 0.000144796
7 *50:8 *76:10 4.80826e-05
*RES
1 *1180:X *76:10 44.4214 
2 *76:10 *1475:D 38.6214 
*END

*D_NET *77 0.001245
*CONN
*I *1476:D I *D sky130_fd_sc_hd__dfrtp_4
*I *1170:Y O *D sky130_fd_sc_hd__nor2_1
*CAP
1 *1476:D 0.000386917
2 *1170:Y 0.00010304
3 *77:10 0.000489957
4 *1476:D *1476:CLK 2.92604e-05
5 *1476:D *515:14 0.000123889
6 *77:10 *1321:A 1.59071e-05
7 *77:10 *149:31 9.60335e-05
*RES
1 *1170:Y *77:10 39.8229 
2 *77:10 *1476:D 43.4064 
*END

*D_NET *78 0.000330993
*CONN
*I *1477:D I *D sky130_fd_sc_hd__dfrtp_4
*I *1168:Y O *D sky130_fd_sc_hd__nor2_1
*CAP
1 *1477:D 0
2 *1168:Y 0.000121077
3 *78:10 0.000121077
4 *78:10 *1168:A 8.88385e-05
5 *78:10 *244:21 0
*RES
1 *1168:Y *78:10 40.175 
2 *78:10 *1477:D 38 
*END

*D_NET *79 0.000426047
*CONN
*I *1478:D I *D sky130_fd_sc_hd__dfrtp_4
*I *1164:X O *D sky130_fd_sc_hd__clkbuf_1
*CAP
1 *1478:D 2.24686e-05
2 *1164:X 0.000141263
3 *79:10 0.000163731
4 *1478:D *1478:CLK 5.50049e-05
5 *79:10 *145:16 1.39431e-05
6 *79:10 *499:8 2.96369e-05
*RES
1 *1164:X *79:10 40.175 
2 *79:10 *1478:D 38.6214 
*END

*D_NET *80 0.00124362
*CONN
*I *1479:D I *D sky130_fd_sc_hd__dfrtp_2
*I *1161:Y O *D sky130_fd_sc_hd__xnor2_1
*CAP
1 *1479:D 0
2 *1161:Y 0.000553705
3 *80:10 0.000553705
4 *80:10 *418:14 6.93449e-05
5 *80:10 *444:12 6.6869e-05
*RES
1 *1161:Y *80:10 45.7679 
2 *80:10 *1479:D 38 
*END

*D_NET *81 0.000679552
*CONN
*I *1480:D I *D sky130_fd_sc_hd__dfxtp_1
*I *1330:X O *D sky130_fd_sc_hd__clkbuf_1
*CAP
1 *1480:D 1.58638e-05
2 *1330:X 0.000265899
3 *81:10 0.000281762
4 *81:10 *1329:S 3.96881e-05
5 *81:10 *1330:A 3.41017e-05
6 *81:10 *163:98 4.22374e-05
*RES
1 *1330:X *81:10 42.3086 
2 *81:10 *1480:D 38.1916 
*END

*D_NET *82 0.00120151
*CONN
*I *1481:D I *D sky130_fd_sc_hd__dfxtp_1
*I *1332:X O *D sky130_fd_sc_hd__clkbuf_1
*CAP
1 *1481:D 3.87858e-05
2 *1332:X 0.000145246
3 *82:10 0.000184031
4 *1481:D *288:98 0.000100665
5 *1481:D *333:98 9.81682e-05
6 *82:10 *1298:A1 2.45549e-06
7 *82:10 *1332:A 0.000100069
8 *82:10 *165:165 0.000217543
9 *82:10 *166:46 9.92983e-05
10 *82:10 *260:8 0.000215252
*RES
1 *1332:X *82:10 42.5364 
2 *82:10 *1481:D 39.1445 
*END

*D_NET *83 0.00248959
*CONN
*I *1482:D I *D sky130_fd_sc_hd__dfxtp_1
*I *1334:X O *D sky130_fd_sc_hd__clkbuf_1
*CAP
1 *1482:D 0
2 *1334:X 0.000385164
3 *83:8 0.000385164
4 *83:8 *1334:A 0.000484539
5 *83:8 *328:135 0.000347205
6 *83:8 *336:34 2.82257e-05
7 *83:8 *336:40 0.000129529
8 *83:8 *433:50 0.00047502
9 *83:8 *433:76 0.000254742
*RES
1 *1334:X *83:8 34.9159 
2 *83:8 *1482:D 23 
*END

*D_NET *84 0.00147067
*CONN
*I *1483:D I *D sky130_fd_sc_hd__dfxtp_1
*I *1336:X O *D sky130_fd_sc_hd__clkbuf_1
*CAP
1 *1483:D 1.38132e-05
2 *1336:X 0.000589757
3 *84:10 0.00060357
4 *1483:D *425:18 4.9054e-06
5 *84:10 *1234:B1 0
6 *84:10 *1409:A 5.68958e-05
7 *84:10 *116:8 0.00019747
8 *84:10 *165:165 0
9 *84:10 *333:108 3.36312e-06
10 *84:10 *435:31 8.91468e-07
*RES
1 *1336:X *84:10 47.4664 
2 *84:10 *1483:D 38.1916 
*END

*D_NET *85 0.000632175
*CONN
*I *1484:D I *D sky130_fd_sc_hd__dfxtp_1
*I *1338:X O *D sky130_fd_sc_hd__clkbuf_1
*CAP
1 *1484:D 5.77925e-06
2 *1338:X 0.000182271
3 *85:10 0.00018805
4 *1484:D *438:69 5.34647e-06
5 *1484:D *455:48 1.64354e-05
6 *85:10 *1543:A 4.96264e-05
7 *85:10 *202:22 0.000113153
8 *85:10 *254:74 7.15126e-05
*RES
1 *1338:X *85:10 41.1279 
2 *85:10 *1484:D 38.1916 
*END

*D_NET *86 0.000390361
*CONN
*I *1485:D I *D sky130_fd_sc_hd__dfxtp_1
*I *1340:X O *D sky130_fd_sc_hd__clkbuf_1
*CAP
1 *1485:D 0.0001429
2 *1340:X 0.0001429
3 *1485:D *1340:A 9.64943e-05
4 *1485:D *163:98 8.06804e-06
*RES
1 *1340:X *1485:D 48.3873 
*END

*D_NET *87 0.000363676
*CONN
*I *1486:D I *D sky130_fd_sc_hd__dfxtp_1
*I *1342:X O *D sky130_fd_sc_hd__clkbuf_1
*CAP
1 *1486:D 0.000146714
2 *1342:X 0.000146714
3 *1486:D *1342:A 1.46205e-05
4 *1486:D *1486:CLK 5.56279e-05
5 *1486:D *1584:A 0
*RES
1 *1342:X *1486:D 48.3873 
*END

*D_NET *88 0.00080812
*CONN
*I *1487:D I *D sky130_fd_sc_hd__dfxtp_1
*I *1344:X O *D sky130_fd_sc_hd__clkbuf_1
*CAP
1 *1487:D 3.20697e-05
2 *1344:X 8.25231e-05
3 *88:8 0.000114593
4 *1487:D *158:68 0.000233156
5 *1487:D *488:51 0.000234857
6 *88:8 *179:12 0.000110922
*RES
1 *1344:X *88:8 39.5536 
2 *88:8 *1487:D 40.5737 
*END

*D_NET *89 0.000499915
*CONN
*I *1488:D I *D sky130_fd_sc_hd__dfxtp_1
*I *1348:X O *D sky130_fd_sc_hd__clkbuf_1
*CAP
1 *1488:D 9.26771e-06
2 *1348:X 0.000198726
3 *89:10 0.000207993
4 *1488:D *268:124 4.9054e-06
5 *1488:D *339:14 1.64354e-05
6 *89:10 *1488:CLK 4.6318e-06
7 *89:10 *167:84 5.79559e-05
8 *89:10 *319:84 0
*RES
1 *1348:X *89:10 40.8793 
2 *89:10 *1488:D 38.1916 
*END

*D_NET *90 0.000413569
*CONN
*I *1489:D I *D sky130_fd_sc_hd__dfxtp_1
*I *1350:X O *D sky130_fd_sc_hd__clkbuf_1
*CAP
1 *1489:D 1.58638e-05
2 *1350:X 0.000147224
3 *90:10 0.000163088
4 *90:10 *163:24 0
5 *90:10 *333:39 3.22879e-05
6 *90:10 *430:29 5.51058e-05
*RES
1 *1350:X *90:10 40.8793 
2 *90:10 *1489:D 38.1916 
*END

*D_NET *91 0.000584812
*CONN
*I *1490:D I *D sky130_fd_sc_hd__dfxtp_1
*I *1352:X O *D sky130_fd_sc_hd__clkbuf_1
*CAP
1 *1490:D 9.2125e-05
2 *1352:X 9.2125e-05
3 *1490:D *1352:A 5.52639e-05
4 *1490:D *158:135 0.000217987
5 *1490:D *335:63 0.000127311
*RES
1 *1352:X *1490:D 49.568 
*END

*D_NET *92 0.000286256
*CONN
*I *1491:D I *D sky130_fd_sc_hd__dfxtp_1
*I *1354:X O *D sky130_fd_sc_hd__clkbuf_1
*CAP
1 *1491:D 4.14506e-05
2 *1354:X 7.99656e-05
3 *92:8 0.000121416
4 *1491:D *436:14 1.35043e-05
5 *92:8 *418:14 2.99194e-05
*RES
1 *1354:X *92:8 39.5536 
2 *92:8 *1491:D 38.668 
*END

*D_NET *93 0.000955271
*CONN
*I *1492:D I *D sky130_fd_sc_hd__dfxtp_1
*I *1356:X O *D sky130_fd_sc_hd__clkbuf_1
*CAP
1 *1492:D 0.00011832
2 *1356:X 0.000185047
3 *93:10 0.000303367
4 *1492:D *1314:A 4.9054e-06
5 *93:10 *1615:A 1.14452e-05
6 *93:10 *1640:A 0.000169674
7 *93:10 *163:45 0
8 *93:10 *421:10 9.84794e-05
9 *93:10 *455:25 2.31687e-05
10 *93:10 *485:10 4.08641e-05
*RES
1 *1356:X *93:10 41.8321 
2 *93:10 *1492:D 39.6209 
*END

*D_NET *94 0.000354907
*CONN
*I *1493:D I *D sky130_fd_sc_hd__dfxtp_1
*I *1358:X O *D sky130_fd_sc_hd__clkbuf_1
*CAP
1 *1493:D 1.55139e-05
2 *1358:X 0.000102682
3 *94:8 0.000118196
4 *1493:D *328:20 5.92579e-05
5 *1493:D *335:16 5.92579e-05
6 *94:8 *172:98 0
*RES
1 *1358:X *94:8 39.5536 
2 *94:8 *1493:D 38.668 
*END

*D_NET *95 0.000743401
*CONN
*I *1494:D I *D sky130_fd_sc_hd__dfxtp_1
*I *1360:X O *D sky130_fd_sc_hd__clkbuf_1
*CAP
1 *1494:D 6.76147e-05
2 *1360:X 8.35344e-05
3 *95:8 0.000151149
4 *1494:D *268:67 4.42833e-05
5 *1494:D *331:34 0.000141707
6 *95:8 *268:75 8.9728e-05
7 *95:8 *368:25 0.000165384
*RES
1 *1360:X *95:8 40.2579 
2 *95:8 *1494:D 39.6209 
*END

*D_NET *96 0.000433682
*CONN
*I *1495:D I *D sky130_fd_sc_hd__dfxtp_1
*I *1362:X O *D sky130_fd_sc_hd__clkbuf_1
*CAP
1 *1495:D 8.02205e-05
2 *1362:X 8.02205e-05
3 *1495:D *1362:A 3.2277e-05
4 *1495:D *1495:CLK 0.000129548
5 *1495:D *268:67 0.000111416
*RES
1 *1362:X *1495:D 49.5629 
*END

*D_NET *97 0.00256745
*CONN
*I *1496:D I *D sky130_fd_sc_hd__dfxtp_1
*I *1366:X O *D sky130_fd_sc_hd__clkbuf_1
*CAP
1 *1496:D 0.000267188
2 *1366:X 0.000442622
3 *97:8 0.00070981
4 *1496:D *319:84 8.78864e-05
5 *1496:D *336:87 3.24476e-06
6 *1496:D *419:27 0.000195162
7 *97:8 *1366:A 2.95526e-05
8 *97:8 *1438:S 0.000408134
9 *97:8 *1575:A 0.000220391
10 *97:8 *319:104 5.58003e-05
11 *97:8 *320:10 0.000147656
*RES
1 *1366:X *97:8 48.15 
2 *97:8 *1496:D 42.728 
*END

*D_NET *98 0.000686559
*CONN
*I *1497:D I *D sky130_fd_sc_hd__dfxtp_1
*I *1368:X O *D sky130_fd_sc_hd__clkbuf_1
*CAP
1 *1497:D 2.70498e-05
2 *1368:X 0.000237197
3 *98:10 0.000264246
4 *1497:D *1228:A2 3.08942e-05
5 *1497:D *1228:B1 9.05169e-05
6 *98:10 *280:8 3.66555e-05
*RES
1 *1368:X *98:10 41.3557 
2 *98:10 *1497:D 38.9943 
*END

*D_NET *99 0.000683549
*CONN
*I *1498:D I *D sky130_fd_sc_hd__dfxtp_1
*I *1370:X O *D sky130_fd_sc_hd__clkbuf_1
*CAP
1 *1498:D 7.17495e-06
2 *1370:X 0.000243932
3 *99:8 0.000251106
4 *1498:D *1442:A1 1.64354e-05
5 *1498:D *1498:CLK 1.64354e-05
6 *99:8 *175:86 7.74127e-05
7 *99:8 *386:25 7.10527e-05
*RES
1 *1370:X *99:8 42.3707 
2 *99:8 *1498:D 38.1916 
*END

*D_NET *100 0.000373944
*CONN
*I *1499:D I *D sky130_fd_sc_hd__dfxtp_1
*I *1372:X O *D sky130_fd_sc_hd__clkbuf_1
*CAP
1 *1499:D 9.83299e-05
2 *1372:X 9.83299e-05
3 *1499:D *1372:A 0.000177284
*RES
1 *1372:X *1499:D 48.3873 
*END

*D_NET *101 0.000872655
*CONN
*I *1500:D I *D sky130_fd_sc_hd__dfxtp_1
*I *1374:X O *D sky130_fd_sc_hd__clkbuf_1
*CAP
1 *1500:D 4.01571e-05
2 *1374:X 0.000208901
3 *101:8 0.000249058
4 *1500:D *334:104 5.73018e-05
5 *101:8 *142:132 0.000127007
6 *101:8 *422:14 0
7 *101:8 *463:8 0.000190229
*RES
1 *1374:X *101:8 43.4271 
2 *101:8 *1500:D 38.668 
*END

*D_NET *102 0.000573141
*CONN
*I *1501:D I *D sky130_fd_sc_hd__dfxtp_1
*I *1376:X O *D sky130_fd_sc_hd__clkbuf_1
*CAP
1 *1501:D 4.80919e-05
2 *1376:X 9.98512e-05
3 *102:8 0.000147943
4 *1501:D *165:82 2.54551e-05
5 *1501:D *332:46 8.52864e-05
6 *102:8 *268:86 0.000166513
7 *102:8 *456:10 0
*RES
1 *1376:X *102:8 40.2579 
2 *102:8 *1501:D 38.9943 
*END

*D_NET *103 0.000717599
*CONN
*I *1502:D I *D sky130_fd_sc_hd__dfxtp_1
*I *1378:X O *D sky130_fd_sc_hd__clkbuf_1
*CAP
1 *1502:D 8.10747e-05
2 *1378:X 7.5346e-05
3 *103:8 0.000156421
4 *1502:D *1502:CLK 0.000141896
5 *103:8 *319:38 0.000131431
6 *103:8 *332:10 9.28078e-06
7 *103:8 *332:29 0.00012215
*RES
1 *1378:X *103:8 39.9057 
2 *103:8 *1502:D 39.6209 
*END

*D_NET *104 0.000329945
*CONN
*I *1503:D I *D sky130_fd_sc_hd__dfxtp_1
*I *1380:X O *D sky130_fd_sc_hd__clkbuf_1
*CAP
1 *1503:D 3.54071e-05
2 *1380:X 8.22689e-05
3 *104:8 0.000117676
4 *1503:D *163:199 5.99746e-05
5 *104:8 *328:48 3.46181e-05
*RES
1 *1380:X *104:8 39.5536 
2 *104:8 *1503:D 38.668 
*END

*D_NET *105 0.00255071
*CONN
*I *1504:D I *D sky130_fd_sc_hd__dfxtp_1
*I *1384:X O *D sky130_fd_sc_hd__clkbuf_1
*CAP
1 *1504:D 0.000282866
2 *1384:X 0.000574451
3 *105:14 0.000857317
4 *1504:D *345:12 0.000565972
5 *105:14 *1383:S 4.22185e-05
6 *105:14 *176:77 0
7 *105:14 *269:8 2.50029e-05
8 *105:14 *438:96 7.51783e-05
9 *105:14 *500:10 0.000127699
*RES
1 *1384:X *105:14 46.845 
2 *105:14 *1504:D 44.3852 
*END

*D_NET *106 0.000664937
*CONN
*I *1505:D I *D sky130_fd_sc_hd__dfxtp_1
*I *1386:X O *D sky130_fd_sc_hd__clkbuf_1
*CAP
1 *1505:D 8.7049e-05
2 *1386:X 0.000159863
3 *106:10 0.000246912
4 *1505:D *1455:CLK 0.000131225
5 *106:10 *268:37 3.98887e-05
6 *106:10 *290:16 0
*RES
1 *1386:X *106:10 40.2993 
2 *106:10 *1505:D 39.9109 
*END

*D_NET *107 0.000317898
*CONN
*I *1506:D I *D sky130_fd_sc_hd__dfxtp_1
*I *1388:X O *D sky130_fd_sc_hd__clkbuf_1
*CAP
1 *1506:D 7.314e-06
2 *1388:X 0.0001014
3 *107:8 0.000108714
4 *1506:D *245:81 4.9054e-06
5 *1506:D *288:98 1.00591e-05
6 *107:8 *166:46 4.13477e-05
7 *107:8 *219:12 4.41587e-05
*RES
1 *1388:X *107:8 40.2579 
2 *107:8 *1506:D 38.1916 
*END

*D_NET *108 0.000730684
*CONN
*I *1507:D I *D sky130_fd_sc_hd__dfxtp_1
*I *1390:X O *D sky130_fd_sc_hd__clkbuf_1
*CAP
1 *1507:D 6.24298e-05
2 *1390:X 0.00020494
3 *108:10 0.000267369
4 *1507:D *348:25 0.000131225
5 *108:10 *219:24 1.12569e-05
6 *108:10 *268:37 5.34638e-05
7 *108:10 *444:31 0
*RES
1 *1390:X *108:10 41.1279 
2 *108:10 *1507:D 39.4137 
*END

*D_NET *109 0.000712109
*CONN
*I *1508:D I *D sky130_fd_sc_hd__dfxtp_1
*I *1392:X O *D sky130_fd_sc_hd__clkbuf_1
*CAP
1 *1508:D 3.91243e-05
2 *1392:X 0.000124056
3 *109:10 0.00016318
4 *1508:D *203:6 1.48827e-05
5 *1508:D *333:16 8.68427e-05
6 *109:10 *163:45 0.000135772
7 *109:10 *203:12 0.000132342
8 *109:10 *455:25 1.59094e-05
*RES
1 *1392:X *109:10 40.5271 
2 *109:10 *1508:D 38.9943 
*END

*D_NET *110 0.00198694
*CONN
*I *1509:D I *D sky130_fd_sc_hd__dfxtp_1
*I *1394:X O *D sky130_fd_sc_hd__clkbuf_1
*CAP
1 *1509:D 0.000158291
2 *1394:X 0.000383763
3 *110:10 0.000542054
4 *1509:D *335:16 0.000136738
5 *1509:D *350:6 4.67488e-05
6 *1509:D *350:27 6.95239e-05
7 *110:10 *227:10 0.00044648
8 *110:10 *294:10 0.000136486
9 *110:10 *319:66 6.68587e-05
*RES
1 *1394:X *110:10 44.815 
2 *110:10 *1509:D 41.5421 
*END

*D_NET *111 0.000355062
*CONN
*I *1510:D I *D sky130_fd_sc_hd__dfxtp_1
*I *1396:X O *D sky130_fd_sc_hd__clkbuf_1
*CAP
1 *1510:D 1.13183e-05
2 *1396:X 9.9736e-05
3 *111:8 0.000111054
4 *1510:D *331:46 1.64354e-05
5 *111:8 *435:58 0.000116518
*RES
1 *1396:X *111:8 40.2579 
2 *111:8 *1510:D 38.1916 
*END

*D_NET *112 0.000463592
*CONN
*I *1511:D I *D sky130_fd_sc_hd__dfxtp_1
*I *1398:X O *D sky130_fd_sc_hd__clkbuf_1
*CAP
1 *1511:D 7.67912e-05
2 *1398:X 7.67912e-05
3 *1511:D *1462:CLK 2.4754e-05
4 *1511:D *1511:CLK 6.59204e-05
5 *1511:D *288:38 0.000113269
6 *1511:D *331:48 0.000106066
*RES
1 *1398:X *1511:D 49.5629 
*END

*D_NET *113 0.000458885
*CONN
*I *1512:D I *D sky130_fd_sc_hd__dfxtp_1
*I *1403:X O *D sky130_fd_sc_hd__clkbuf_1
*CAP
1 *1512:D 0.000165611
2 *1403:X 0.000165611
3 *1512:D *1576:A 0
4 *1512:D *369:12 0.000127664
*RES
1 *1403:X *1512:D 48.8638 
*END

*D_NET *114 0.000301878
*CONN
*I *1513:D I *D sky130_fd_sc_hd__dfxtp_1
*I *1405:X O *D sky130_fd_sc_hd__clkbuf_1
*CAP
1 *1513:D 6.26158e-05
2 *1405:X 6.66531e-05
3 *114:8 0.000129269
4 *114:8 *301:10 4.334e-05
*RES
1 *1405:X *114:8 39.2014 
2 *114:8 *1513:D 39.1652 
*END

*D_NET *115 0.00131285
*CONN
*I *1514:D I *D sky130_fd_sc_hd__dfxtp_1
*I *1407:X O *D sky130_fd_sc_hd__clkbuf_1
*CAP
1 *1514:D 2.11691e-05
2 *1407:X 0.000380686
3 *115:10 0.000401855
4 *1514:D *1424:A0 5.96334e-05
5 *1514:D *419:27 5.73018e-05
6 *115:10 *123:14 6.51673e-05
7 *115:10 *175:78 3.23186e-05
8 *115:10 *217:12 0
9 *115:10 *336:55 0.000111445
10 *115:10 *484:8 0.000183278
*RES
1 *1407:X *115:10 44.525 
2 *115:10 *1514:D 38.668 
*END

*D_NET *116 0.000562716
*CONN
*I *1515:D I *D sky130_fd_sc_hd__dfxtp_1
*I *1409:X O *D sky130_fd_sc_hd__clkbuf_1
*CAP
1 *1515:D 5.17855e-05
2 *1409:X 8.60759e-05
3 *116:8 0.000137861
4 *1515:D *330:50 3.24476e-06
5 *116:8 *165:165 0
6 *116:8 *330:50 8.62783e-05
7 *84:10 *116:8 0.00019747
*RES
1 *1409:X *116:8 40.61 
2 *116:8 *1515:D 38.668 
*END

*D_NET *117 0.000295859
*CONN
*I *1516:D I *D sky130_fd_sc_hd__dfxtp_1
*I *1411:X O *D sky130_fd_sc_hd__clkbuf_1
*CAP
1 *1516:D 4.08131e-05
2 *1411:X 9.95004e-05
3 *117:8 0.000140314
4 *1516:D *334:32 1.52322e-05
5 *117:8 *242:14 0
*RES
1 *1411:X *117:8 39.5536 
2 *117:8 *1516:D 38.668 
*END

*D_NET *118 0.000751441
*CONN
*I *1517:D I *D sky130_fd_sc_hd__dfxtp_1
*I *1413:X O *D sky130_fd_sc_hd__clkbuf_1
*CAP
1 *1517:D 0.000163108
2 *1413:X 9.81512e-05
3 *118:8 0.000261259
4 *1517:D *191:18 5.62266e-05
5 *1517:D *506:14 6.17437e-06
6 *118:8 *191:8 0
7 *118:8 *254:123 0
8 *118:8 *305:10 0.000166522
*RES
1 *1413:X *118:8 40.2579 
2 *118:8 *1517:D 40.5737 
*END

*D_NET *119 0.000846034
*CONN
*I *1518:D I *D sky130_fd_sc_hd__dfxtp_1
*I *1415:X O *D sky130_fd_sc_hd__clkbuf_1
*CAP
1 *1518:D 0.000310894
2 *1415:X 4.7616e-05
3 *119:8 0.00035851
4 *119:8 *413:12 8.78864e-05
5 *119:8 *499:63 4.11274e-05
*RES
1 *1415:X *119:8 39.2014 
2 *119:8 *1518:D 43.2045 
*END

*D_NET *120 0.000298504
*CONN
*I *1519:D I *D sky130_fd_sc_hd__dfxtp_1
*I *1417:X O *D sky130_fd_sc_hd__clkbuf_1
*CAP
1 *1519:D 0.000143033
2 *1417:X 0.000143033
3 *1519:D *1417:A 1.24376e-05
*RES
1 *1417:X *1519:D 48.3873 
*END

*D_NET *121 0.000412239
*CONN
*I *1520:D I *D sky130_fd_sc_hd__dfxtp_1
*I *1421:X O *D sky130_fd_sc_hd__clkbuf_1
*CAP
1 *1520:D 7.22382e-06
2 *1421:X 6.62751e-05
3 *121:8 7.34989e-05
4 *1520:D *160:154 9.95543e-06
5 *1520:D *336:144 4.9054e-06
6 *121:8 *175:74 0.000168744
7 *121:8 *310:10 8.16356e-05
*RES
1 *1421:X *121:8 40.2579 
2 *121:8 *1520:D 38.1916 
*END

*D_NET *122 0.000394473
*CONN
*I *1521:D I *D sky130_fd_sc_hd__dfxtp_1
*I *1423:X O *D sky130_fd_sc_hd__clkbuf_1
*CAP
1 *1521:D 6.93454e-05
2 *1423:X 4.97721e-05
3 *122:8 0.000119117
4 *1521:D *254:82 1.9191e-05
5 *1521:D *299:46 2.15253e-06
6 *122:8 *212:10 8.85189e-05
7 *122:8 *226:14 3.62323e-05
8 *122:8 *299:34 1.01436e-05
*RES
1 *1423:X *122:8 39.2014 
2 *122:8 *1521:D 39.3671 
*END

*D_NET *123 0.00113272
*CONN
*I *1522:D I *D sky130_fd_sc_hd__dfxtp_1
*I *1425:X O *D sky130_fd_sc_hd__clkbuf_1
*CAP
1 *1522:D 7.54821e-06
2 *1425:X 0.000358886
3 *123:14 0.000366434
4 *1522:D *1265:A2 6.09914e-06
5 *1522:D *1582:A 8.15899e-06
6 *123:14 *217:12 0
7 *123:14 *299:80 0.000108059
8 *123:14 *312:8 0
9 *123:14 *336:55 0.000212368
10 *115:10 *123:14 6.51673e-05
*RES
1 *1425:X *123:14 44.9393 
2 *123:14 *1522:D 38.1916 
*END

*D_NET *124 0.0012724
*CONN
*I *1523:D I *D sky130_fd_sc_hd__dfxtp_1
*I *1427:X O *D sky130_fd_sc_hd__clkbuf_1
*CAP
1 *1523:D 0.000140458
2 *1427:X 0.000150488
3 *124:8 0.000290947
4 *1523:D *258:40 0.000187073
5 *124:8 *278:57 0.000379431
6 *124:8 *309:23 0.000123998
*RES
1 *1427:X *124:8 43.075 
2 *124:8 *1523:D 41.0502 
*END

*D_NET *125 0.000515687
*CONN
*I *1524:D I *D sky130_fd_sc_hd__dfxtp_1
*I *1429:X O *D sky130_fd_sc_hd__clkbuf_1
*CAP
1 *1524:D 2.06856e-05
2 *1429:X 7.8969e-05
3 *125:8 9.96546e-05
4 *1524:D *199:10 0.000102732
5 *1524:D *223:10 0.000102732
6 *125:8 *142:128 0.000110913
7 *125:8 *334:21 0
*RES
1 *1429:X *125:8 39.5536 
2 *125:8 *1524:D 39.1445 
*END

*D_NET *126 0.000431051
*CONN
*I *1525:D I *D sky130_fd_sc_hd__dfxtp_1
*I *1431:X O *D sky130_fd_sc_hd__clkbuf_1
*CAP
1 *1525:D 4.62744e-06
2 *1431:X 0.000147496
3 *126:8 0.000152123
4 *1525:D *160:97 1.74843e-05
5 *1525:D *332:78 1.64354e-05
6 *126:8 *175:74 0
7 *126:8 *315:10 9.28842e-05
*RES
1 *1431:X *126:8 40.61 
2 *126:8 *1525:D 38.1916 
*END

*D_NET *127 0.000421759
*CONN
*I *1526:D I *D sky130_fd_sc_hd__dfxtp_1
*I *1433:X O *D sky130_fd_sc_hd__clkbuf_1
*CAP
1 *1526:D 4.85691e-05
2 *1433:X 0.000146749
3 *127:8 0.000195319
4 *1526:D *185:6 3.11218e-05
5 *127:8 *1375:S 0
6 *127:8 *309:56 0
*RES
1 *1433:X *127:8 40.2579 
2 *127:8 *1526:D 38.9943 
*END

*D_NET *128 0.000582353
*CONN
*I *1527:D I *D sky130_fd_sc_hd__dfxtp_1
*I *1435:X O *D sky130_fd_sc_hd__clkbuf_1
*CAP
1 *1527:D 6.24925e-05
2 *1435:X 0.000204413
3 *128:10 0.000266905
4 *128:10 *309:62 0
5 *128:10 *317:10 4.85428e-05
6 *128:10 *360:27 0
*RES
1 *1435:X *128:10 41.3557 
2 *128:10 *1527:D 38.9943 
*END

*D_NET *129 0.000493988
*CONN
*I *1528:D I *D sky130_fd_sc_hd__dfxtp_1
*I *1439:X O *D sky130_fd_sc_hd__clkbuf_1
*CAP
1 *1528:D 8.34134e-05
2 *1439:X 0.000115905
3 *129:8 0.000199318
4 *1528:D *319:104 4.89325e-05
5 *129:8 *278:87 4.64194e-05
*RES
1 *1439:X *129:8 40.2579 
2 *129:8 *1528:D 39.6209 
*END

*D_NET *130 0.000292975
*CONN
*I *1529:D I *D sky130_fd_sc_hd__dfxtp_1
*I *1441:X O *D sky130_fd_sc_hd__clkbuf_1
*CAP
1 *1529:D 1.58638e-05
2 *1441:X 0.000111262
3 *130:8 0.000127126
4 *130:8 *1529:CLK 3.87236e-05
5 *130:8 *283:8 0
*RES
1 *1441:X *130:8 40.2579 
2 *130:8 *1529:D 38.1916 
*END

*D_NET *131 0.000424135
*CONN
*I *1530:D I *D sky130_fd_sc_hd__dfxtp_1
*I *1443:X O *D sky130_fd_sc_hd__clkbuf_1
*CAP
1 *1530:D 1.06232e-05
2 *1443:X 0.000126422
3 *131:10 0.000137045
4 *1530:D *1246:B2 2.13216e-05
5 *131:10 *322:12 6.93553e-05
6 *131:10 *386:25 5.93671e-05
*RES
1 *1443:X *131:10 40.5271 
2 *131:10 *1530:D 38.2486 
*END

*D_NET *132 0.000556626
*CONN
*I *1531:D I *D sky130_fd_sc_hd__dfxtp_1
*I *1445:X O *D sky130_fd_sc_hd__clkbuf_1
*CAP
1 *1531:D 3.85454e-05
2 *1445:X 0.000131193
3 *132:8 0.000169739
4 *1531:D *172:12 5.82853e-05
5 *1531:D *175:14 1.45094e-05
6 *1531:D *330:58 3.28357e-06
7 *132:8 *323:8 9.14776e-05
8 *132:8 *330:58 4.95928e-05
*RES
1 *1445:X *132:8 40.61 
2 *132:8 *1531:D 39.3102 
*END

*D_NET *133 0.00098729
*CONN
*I *1532:D I *D sky130_fd_sc_hd__dfxtp_1
*I *1447:X O *D sky130_fd_sc_hd__clkbuf_1
*CAP
1 *1532:D 0.000181938
2 *1447:X 5.55588e-05
3 *133:8 0.000237497
4 *1532:D *1532:CLK 0.000369142
5 *133:8 *334:86 2.99194e-05
6 *133:8 *422:14 0.000113235
*RES
1 *1447:X *133:8 39.5536 
2 *133:8 *1532:D 42.003 
*END

*D_NET *134 0.000426406
*CONN
*I *1533:D I *D sky130_fd_sc_hd__dfxtp_1
*I *1449:X O *D sky130_fd_sc_hd__clkbuf_1
*CAP
1 *1533:D 9.26771e-06
2 *1449:X 0.000167478
3 *134:10 0.000176746
4 *1533:D *1236:B1 4.9054e-06
5 *1533:D *1533:CLK 1.64354e-05
6 *134:10 *165:61 0
7 *134:10 *172:26 5.15745e-05
8 *134:10 *456:10 0
*RES
1 *1449:X *134:10 40.8793 
2 *134:10 *1533:D 38.1916 
*END

*D_NET *135 0.000390953
*CONN
*I *1534:D I *D sky130_fd_sc_hd__dfxtp_1
*I *1451:X O *D sky130_fd_sc_hd__clkbuf_1
*CAP
1 *1534:D 3.54071e-05
2 *1451:X 7.39351e-05
3 *135:8 0.000109342
4 *1534:D *175:33 5.99746e-05
5 *135:8 *165:61 0.000112294
*RES
1 *1451:X *135:8 39.5536 
2 *135:8 *1534:D 38.668 
*END

*D_NET *136 0.000413746
*CONN
*I *1535:D I *D sky130_fd_sc_hd__dfxtp_1
*I *1453:X O *D sky130_fd_sc_hd__clkbuf_1
*CAP
1 *1535:D 0.000123238
2 *1453:X 0.000123238
3 *1535:D *327:8 0.00016727
*RES
1 *1453:X *1535:D 48.3873 
*END

*D_NET *137 0.00212971
*CONN
*I *1156:A I *D sky130_fd_sc_hd__or4_1
*I *1275:A I *D sky130_fd_sc_hd__xnor2_2
*I *1175:A1 I *D sky130_fd_sc_hd__o21a_1
*I *1152:X O *D sky130_fd_sc_hd__xor2_2
*CAP
1 *1156:A 0.000252891
2 *1275:A 0
3 *1175:A1 4.94576e-05
4 *1152:X 0.000138454
5 *137:21 0.000517772
6 *137:8 0.000452792
7 *1156:A *1156:D 0.000139977
8 *1156:A *138:23 3.7122e-06
9 *1156:A *139:12 0.000160877
10 *1156:A *139:29 1.09903e-05
11 *1156:A *142:10 0
12 *1156:A *154:10 0
13 *1156:A *238:10 0.000162803
14 *1156:A *238:46 9.28078e-06
15 *1175:A1 *1176:B 6.29073e-05
16 *1175:A1 *155:8 0.000153688
17 *1175:A1 *168:24 1.41077e-05
18 *137:8 *1176:A 0
19 *137:8 *142:10 0
20 *137:21 *1175:A2 0
21 *137:21 *1176:A 0
22 *137:21 *142:10 0
*RES
1 *1152:X *137:8 39.9057 
2 *137:8 *1175:A1 40.0714 
3 *137:8 *137:21 3.66643 
4 *137:21 *1275:A 38 
5 *137:21 *1156:A 43.0336 
*END

*D_NET *138 0.00266286
*CONN
*I *1280:A I *D sky130_fd_sc_hd__nor3_1
*I *1282:A I *D sky130_fd_sc_hd__xor2_2
*I *1156:B I *D sky130_fd_sc_hd__or4_1
*I *1173:A1 I *D sky130_fd_sc_hd__o21a_1
*I *1153:X O *D sky130_fd_sc_hd__xor2_2
*CAP
1 *1280:A 0
2 *1282:A 1.44422e-05
3 *1156:B 0
4 *1173:A1 7.34659e-05
5 *1153:X 0
6 *138:45 0.000112472
7 *138:30 0.000231052
8 *138:23 0.000198046
9 *138:15 0.000387356
10 *138:4 0.000158637
11 *1173:A1 *1173:A2 0.000265445
12 *1173:A1 *153:22 0.000123944
13 *1282:A *1153:A 4.00259e-06
14 *1282:A *1273:A 1.72983e-05
15 *1282:A *1282:B 5.70771e-06
16 *138:15 *1173:A2 0.000267167
17 *138:15 *153:22 0.00011639
18 *138:23 *1538:A 2.60152e-05
19 *138:23 *153:22 0.000141879
20 *138:23 *163:173 2.03764e-06
21 *138:23 *238:14 5.41288e-05
22 *138:23 *238:46 9.74132e-05
23 *138:30 *1153:A 2.63049e-05
24 *138:30 *1173:A2 0.000181131
25 *138:30 *1282:B 2.93845e-05
26 *138:45 *1273:A 5.90675e-06
27 *138:45 *1280:B 0.000109377
28 *138:45 *139:54 1.01436e-05
29 *138:45 *142:40 0
30 *1156:A *138:23 3.7122e-06
*RES
1 *1153:X *138:4 23 
2 *138:4 *1173:A1 26.0243 
3 *138:4 *138:15 3.00357 
4 *138:15 *138:23 34.1843 
5 *138:23 *1156:B 23 
6 *138:15 *138:30 2.52714 
7 *138:30 *1282:A 23.4971 
8 *138:30 *138:45 32.0507 
9 *138:45 *1280:A 23 
*END

*D_NET *139 0.00545954
*CONN
*I *1280:B I *D sky130_fd_sc_hd__nor3_1
*I *1173:A2 I *D sky130_fd_sc_hd__o21a_1
*I *1273:A I *D sky130_fd_sc_hd__or2_1
*I *1282:B I *D sky130_fd_sc_hd__xor2_2
*I *1156:C I *D sky130_fd_sc_hd__or4_1
*I *1154:Y O *D sky130_fd_sc_hd__nor2b_2
*CAP
1 *1280:B 0.000128434
2 *1173:A2 0.00054542
3 *1273:A 0.000343013
4 *1282:B 0.000385984
5 *1156:C 0
6 *1154:Y 0.00025583
7 *139:54 0.000760111
8 *139:29 0.000315406
9 *139:14 0.000186178
10 *139:12 0.00025583
11 *1173:A2 *153:22 2.16639e-05
12 *1273:A *1153:A 6.97001e-05
13 *1273:A *1273:B 5.40876e-05
14 *1273:A *435:14 0.000144501
15 *1273:A *435:50 1.10658e-05
16 *1280:B *152:141 7.43209e-05
17 *1280:B *238:46 4.52447e-05
18 *1280:B *329:109 0.000145238
19 *1282:B *1153:A 0.000100805
20 *139:12 *1157:A 0.000100061
21 *139:12 *141:8 0
22 *139:12 *167:124 0.000276209
23 *139:29 *142:40 0
24 *139:29 *238:46 0.000138727
25 *139:54 *142:40 0
26 *139:54 *238:46 3.82852e-05
27 *1156:A *139:12 0.000160877
28 *1156:A *139:29 1.09903e-05
29 *1173:A1 *1173:A2 0.000265445
30 *1282:A *1273:A 1.72983e-05
31 *1282:A *1282:B 5.70771e-06
32 *138:15 *1173:A2 0.000267167
33 *138:30 *1173:A2 0.000181131
34 *138:30 *1282:B 2.93845e-05
35 *138:45 *1273:A 5.90675e-06
36 *138:45 *1280:B 0.000109377
37 *138:45 *139:54 1.01436e-05
*RES
1 *1154:Y *139:12 44.1107 
2 *139:12 *139:14 15 
3 *139:14 *1156:C 23 
4 *139:14 *139:29 18.9979 
5 *139:29 *1282:B 16.5225 
6 *1282:B *1273:A 29.3282 
7 *139:29 *139:54 1.20143 
8 *139:54 *1173:A2 46.6171 
9 *139:54 *1280:B 41.625 
*END

*D_NET *140 0.00431335
*CONN
*I *1280:C I *D sky130_fd_sc_hd__nor3_1
*I *1273:B I *D sky130_fd_sc_hd__or2_1
*I *1156:D I *D sky130_fd_sc_hd__or4_1
*I *1155:X O *D sky130_fd_sc_hd__and2b_1
*CAP
1 *1280:C 0.000416932
2 *1273:B 4.05159e-05
3 *1156:D 0.000266355
4 *1155:X 0.000272128
5 *140:21 0.000662643
6 *140:8 0.000743678
7 *1156:D *163:173 0.000613851
8 *1156:D *163:189 9.13317e-06
9 *1156:D *515:50 0.000102389
10 *1156:D *515:61 0.000177104
11 *1273:B *435:50 0.000137622
12 *1280:C *152:141 7.43114e-05
13 *1280:C *329:109 0.000494203
14 *1280:C *429:16 0
15 *1280:C *429:25 0
16 *140:8 *163:189 9.4798e-06
17 *140:8 *297:12 8.69671e-05
18 *140:8 *515:44 0
19 *140:21 *152:141 0
20 *140:21 *297:12 1.19692e-05
21 *140:21 *429:16 0
22 *140:21 *515:44 0
23 *1156:A *1156:D 0.000139977
24 *1273:A *1273:B 5.40876e-05
*RES
1 *1155:X *140:8 42.3707 
2 *140:8 *1156:D 45.9129 
3 *140:8 *140:21 3.31429 
4 *140:21 *1273:B 39.595 
5 *140:21 *1280:C 46.4929 
*END

*D_NET *141 0.00156141
*CONN
*I *1157:A I *D sky130_fd_sc_hd__clkbuf_4
*I *1156:X O *D sky130_fd_sc_hd__or4_1
*CAP
1 *1157:A 0.00015497
2 *1156:X 0.000146361
3 *141:8 0.000301332
4 *1157:A *1154:A 0.000321267
5 *1157:A *142:8 0.000404246
6 *1157:A *167:124 3.59414e-05
7 *141:8 *142:10 5.58975e-06
8 *141:8 *142:40 6.8292e-05
9 *141:8 *153:12 2.33476e-05
10 *139:12 *1157:A 0.000100061
11 *139:12 *141:8 0
*RES
1 *1156:X *141:8 40.61 
2 *141:8 *1157:A 43.8829 
*END

*D_NET *142 0.0232005
*CONN
*I *1281:B1 I *D sky130_fd_sc_hd__o21a_1
*I *1269:A I *D sky130_fd_sc_hd__nor2_2
*I *1277:A I *D sky130_fd_sc_hd__and2_1
*I *1186:A1 I *D sky130_fd_sc_hd__o21a_4
*I *1182:A1 I *D sky130_fd_sc_hd__o2111a_1
*I *1179:A1 I *D sky130_fd_sc_hd__o211a_1
*I *1184:A1 I *D sky130_fd_sc_hd__o211a_1
*I *1165:A I *D sky130_fd_sc_hd__or2_2
*I *1159:A1 I *D sky130_fd_sc_hd__o2111a_1
*I *1157:X O *D sky130_fd_sc_hd__clkbuf_4
*CAP
1 *1281:B1 4.37244e-05
2 *1269:A 0
3 *1277:A 0
4 *1186:A1 0.000399954
5 *1182:A1 9.48945e-05
6 *1179:A1 0
7 *1184:A1 9.2765e-05
8 *1165:A 2.28611e-05
9 *1159:A1 0.00022863
10 *1157:X 0.000319088
11 *142:132 0.000517755
12 *142:128 0.00228329
13 *142:116 0.00224631
14 *142:77 0.000676873
15 *142:73 0.00117529
16 *142:71 0.00180396
17 *142:61 0.00166685
18 *142:55 0.000486014
19 *142:40 0.00105024
20 *142:10 0.000572364
21 *142:8 0.00134075
22 *1159:A1 *244:130 0
23 *1159:A1 *515:44 0.000267401
24 *1165:A *268:16 5.56279e-05
25 *1165:A *516:59 1.16652e-05
26 *1182:A1 *1473:CLK 5.5792e-05
27 *1182:A1 *437:62 1.59914e-05
28 *1184:A1 *176:14 2.61708e-05
29 *1186:A1 *1186:A2 9.95589e-06
30 *1186:A1 *1186:B1 4.98398e-05
31 *1186:A1 *163:154 8.06804e-06
32 *1186:A1 *437:48 6.81531e-05
33 *1186:A1 *437:62 0.000136026
34 *1281:B1 *1281:A1 8.76309e-05
35 *142:8 *1154:A 2.32101e-05
36 *142:10 *515:44 0.000440258
37 *142:40 *1153:A 2.34364e-05
38 *142:40 *1184:C1 2.33476e-05
39 *142:40 *1281:A1 1.7074e-05
40 *142:40 *1285:B1 6.17437e-06
41 *142:40 *152:141 0.000296026
42 *142:40 *153:12 2.33476e-05
43 *142:40 *157:103 9.1744e-06
44 *142:40 *165:38 0
45 *142:40 *176:14 5.75843e-05
46 *142:40 *238:46 0
47 *142:40 *241:10 0.00013066
48 *142:40 *430:10 1.00084e-05
49 *142:40 *435:14 5.25212e-05
50 *142:40 *515:44 0.000163352
51 *142:55 *1281:A1 0
52 *142:55 *157:103 8.36198e-05
53 *142:55 *430:10 0
54 *142:55 *437:152 0.000358411
55 *142:61 *1189:A 4.44329e-05
56 *142:61 *1281:A1 5.3304e-05
57 *142:61 *160:39 9.59556e-05
58 *142:61 *165:8 5.58003e-05
59 *142:71 *1188:A 0.000108087
60 *142:71 *1189:A 5.8118e-05
61 *142:71 *1191:B 9.79925e-05
62 *142:71 *1191:C 2.02872e-05
63 *142:71 *152:61 0.000628904
64 *142:71 *160:39 2.34392e-05
65 *142:71 *444:31 1.85916e-05
66 *142:73 *152:118 8.36198e-05
67 *142:73 *163:154 5.04612e-05
68 *142:73 *437:62 0.000393291
69 *142:77 *1182:C1 0
70 *142:77 *1187:A 0
71 *142:77 *1187:B 5.21127e-05
72 *142:77 *1472:CLK 0
73 *142:77 *157:10 0
74 *142:77 *158:22 5.51058e-05
75 *142:77 *159:8 2.23884e-05
76 *142:77 *163:154 0.000192125
77 *142:77 *329:18 0
78 *142:77 *329:89 0
79 *142:77 *512:10 0.000242404
80 *142:116 *1457:CLK 0.00010587
81 *142:116 *249:10 0
82 *142:116 *328:113 0.000135375
83 *142:116 *330:10 0.000162733
84 *142:116 *437:89 0.000605144
85 *142:128 *1224:A2 0
86 *142:128 *1227:A2 0
87 *142:128 *1484:CLK 0
88 *142:128 *1543:A 0
89 *142:128 *158:121 0.000139691
90 *142:128 *167:38 0
91 *142:128 *197:8 0
92 *142:128 *202:22 0.000494897
93 *142:128 *247:8 0.000129276
94 *142:128 *249:10 1.14452e-05
95 *142:128 *288:90 0
96 *142:128 *328:83 0
97 *142:128 *334:21 0
98 *142:128 *334:86 0
99 *142:128 *394:12 0
100 *142:128 *425:47 0
101 *142:128 *491:8 3.75401e-06
102 *142:132 *1227:A2 0.000240753
103 *142:132 *334:86 0
104 *142:132 *425:47 3.87936e-05
105 *142:132 *425:55 0.000527909
106 *142:132 *437:122 6.02252e-05
107 *142:132 *507:8 0
108 *1156:A *142:10 0
109 *1157:A *142:8 0.000404246
110 *101:8 *142:132 0.000127007
111 *125:8 *142:128 0.000110913
112 *137:8 *142:10 0
113 *137:21 *142:10 0
114 *138:45 *142:40 0
115 *139:29 *142:40 0
116 *139:54 *142:40 0
117 *141:8 *142:10 5.58975e-06
118 *141:8 *142:40 6.8292e-05
*RES
1 *1157:X *142:8 42.9093 
2 *142:8 *142:10 6.13143 
3 *142:10 *1159:A1 42.2879 
4 *142:10 *1165:A 38.6214 
5 *142:8 *142:40 29.2307 
6 *142:40 *1184:A1 24.4707 
7 *142:40 *142:55 35.075 
8 *142:55 *142:61 4.12214 
9 *142:61 *142:71 30.1007 
10 *142:71 *142:73 7.18786 
11 *142:73 *142:77 28.5264 
12 *142:77 *1179:A1 23 
13 *142:73 *1182:A1 40.0921 
14 *142:71 *1186:A1 44.0279 
15 *142:61 *142:116 41.0614 
16 *142:116 *142:128 47.1796 
17 *142:128 *142:132 29.4068 
18 *142:132 *1277:A 23 
19 *142:116 *1269:A 23 
20 *142:55 *1281:B1 24.0979 
*END

*D_NET *143 0.00369204
*CONN
*I *1159:A2 I *D sky130_fd_sc_hd__o2111a_1
*I *1176:A I *D sky130_fd_sc_hd__xnor2_4
*I *1165:B I *D sky130_fd_sc_hd__or2_2
*I *1158:Y O *D sky130_fd_sc_hd__xnor2_4
*CAP
1 *1159:A2 0.000317962
2 *1176:A 0.000138368
3 *1165:B 0.000128748
4 *1158:Y 0.0004683
5 *143:10 0.000435677
6 *143:6 0.000954823
7 *1159:A2 *245:132 0.000490867
8 *1165:B *268:16 0.000319723
9 *1165:B *516:59 0.000146789
10 *1176:A *245:16 0
11 *143:6 *244:47 4.76173e-05
12 *143:6 *245:16 0.000187363
13 *143:6 *245:132 5.58003e-05
14 *137:8 *1176:A 0
15 *137:21 *1176:A 0
*RES
1 *1158:Y *143:6 29.3386 
2 *143:6 *143:10 17.61 
3 *143:10 *1165:B 43.5514 
4 *143:10 *1176:A 40.2579 
5 *143:6 *1159:A2 28.3857 
*END

*D_NET *144 0.0045544
*CONN
*I *1160:B I *D sky130_fd_sc_hd__nand2_2
*I *1162:B I *D sky130_fd_sc_hd__or2_1
*I *1381:C_N I *D sky130_fd_sc_hd__or3b_1
*I *1168:A I *D sky130_fd_sc_hd__nor2_1
*I *1159:X O *D sky130_fd_sc_hd__o2111a_1
*CAP
1 *1160:B 0
2 *1162:B 0
3 *1381:C_N 0.000357657
4 *1168:A 0.000214317
5 *1159:X 0.000136261
6 *144:54 0.000326527
7 *144:46 0.000796292
8 *144:10 0.000735078
9 *144:8 0.000769129
10 *1168:A *1168:B 5.67058e-05
11 *1168:A *150:8 0
12 *1168:A *244:8 4.95081e-05
13 *1381:C_N *1476:CLK 9.69279e-05
14 *1381:C_N *329:62 5.83407e-05
15 *144:10 *149:16 0
16 *144:46 *1289:A 7.42621e-05
17 *144:46 *1289:B 0.000230723
18 *144:46 *145:29 9.32615e-05
19 *144:46 *515:30 1.9054e-05
20 *144:54 *145:16 2.98648e-05
21 *144:54 *145:29 1.24376e-05
22 *144:54 *288:64 0.000268142
23 *144:54 *329:41 7.15126e-05
24 *144:54 *499:8 0
25 *52:12 *1168:A 4.21594e-06
26 *52:12 *144:10 6.53445e-05
27 *78:10 *1168:A 8.88385e-05
*RES
1 *1159:X *144:8 39.9057 
2 *144:8 *144:10 3.66643 
3 *144:10 *1168:A 42.1221 
4 *144:10 *1381:C_N 43.7793 
5 *144:8 *144:46 23.7621 
6 *144:46 *144:54 36.67 
7 *144:54 *1162:B 23 
8 *144:46 *1160:B 23 
*END

*D_NET *145 0.00326943
*CONN
*I *1289:B I *D sky130_fd_sc_hd__nor2_4
*I *1163:A I *D sky130_fd_sc_hd__and2_1
*I *1161:B I *D sky130_fd_sc_hd__xnor2_1
*I *1160:Y O *D sky130_fd_sc_hd__nand2_2
*CAP
1 *1289:B 5.07289e-05
2 *1163:A 0
3 *1161:B 0
4 *1160:Y 0
5 *145:35 8.02525e-05
6 *145:29 0.000281424
7 *145:16 0.000405348
8 *145:4 0.000555791
9 *1289:B *1289:A 0.000185434
10 *145:16 *1161:A 0.000225649
11 *145:16 *1164:A 0.000184651
12 *145:16 *146:10 0.000351508
13 *145:16 *147:8 4.96264e-05
14 *145:16 *329:41 0.000110922
15 *145:16 *329:62 5.50106e-05
16 *145:35 *146:10 0.000189749
17 *145:35 *244:47 0.000163102
18 *79:10 *145:16 1.39431e-05
19 *144:46 *1289:B 0.000230723
20 *144:46 *145:29 9.32615e-05
21 *144:54 *145:16 2.98648e-05
22 *144:54 *145:29 1.24376e-05
*RES
1 *1160:Y *145:4 23 
2 *145:4 *145:16 40.44 
3 *145:16 *1161:B 23 
4 *145:4 *145:29 3.06571 
5 *145:29 *145:35 32.61 
6 *145:35 *1163:A 23 
7 *145:29 *1289:B 25.5271 
*END

*D_NET *146 0.00221112
*CONN
*I *1163:B I *D sky130_fd_sc_hd__and2_1
*I *1162:X O *D sky130_fd_sc_hd__or2_1
*CAP
1 *1163:B 0
2 *1162:X 0.000573554
3 *146:10 0.000573554
4 *146:10 *244:21 4.6318e-06
5 *146:10 *244:30 6.32688e-05
6 *146:10 *244:47 6.47461e-06
7 *146:10 *329:62 9.00923e-05
8 *146:10 *516:40 0.000166413
9 *146:10 *516:49 0.000191878
10 *145:16 *146:10 0.000351508
11 *145:35 *146:10 0.000189749
*RES
1 *1162:X *146:10 48.585 
2 *146:10 *1163:B 38 
*END

*D_NET *147 0.00189234
*CONN
*I *1164:A I *D sky130_fd_sc_hd__clkbuf_1
*I *1163:X O *D sky130_fd_sc_hd__and2_1
*CAP
1 *1164:A 0.000217122
2 *1163:X 0.000301389
3 *147:8 0.000518511
4 *1164:A *1382:A 3.22879e-05
5 *1164:A *288:8 2.93845e-05
6 *1164:A *329:62 0.000140259
7 *1164:A *516:20 2.93747e-05
8 *147:8 *1478:CLK 9.48381e-06
9 *147:8 *288:64 0
10 *147:8 *329:41 1.4471e-05
11 *147:8 *516:29 1.01436e-05
12 *147:8 *516:40 0.000227972
13 *147:8 *516:49 0.000127662
14 *145:16 *1164:A 0.000184651
15 *145:16 *147:8 4.96264e-05
*RES
1 *1163:X *147:8 43.075 
2 *147:8 *1164:A 43.3857 
*END

*D_NET *148 0.00408436
*CONN
*I *1399:D I *D sky130_fd_sc_hd__and4_1
*I *1271:A I *D sky130_fd_sc_hd__inv_2
*I *1325:D I *D sky130_fd_sc_hd__and4b_1
*I *1169:A2 I *D sky130_fd_sc_hd__a21oi_1
*I *1166:C I *D sky130_fd_sc_hd__and3_1
*I *1165:X O *D sky130_fd_sc_hd__or2_2
*CAP
1 *1399:D 0.000204921
2 *1271:A 0.000102924
3 *1325:D 0
4 *1169:A2 0
5 *1166:C 2.19212e-05
6 *1165:X 2.8181e-05
7 *148:42 0.000119355
8 *148:34 0.000361859
9 *148:27 0.000375774
10 *148:12 0.000479212
11 *148:6 0.000454199
12 *1166:C *1166:B 2.45549e-06
13 *1271:A *514:14 0.000187363
14 *1399:D *268:16 0.000140016
15 *1399:D *297:12 2.37172e-05
16 *1399:D *516:59 0.00014375
17 *148:6 *268:16 8.06804e-06
18 *148:6 *516:59 5.3304e-05
19 *148:12 *515:14 8.57485e-05
20 *148:12 *515:44 0.00023663
21 *148:27 *1166:A 5.79559e-05
22 *148:27 *1166:B 1.74129e-05
23 *148:27 *413:55 1.07299e-05
24 *148:27 *514:16 0.000144494
25 *148:27 *514:42 3.46013e-05
26 *148:34 *413:77 0.000182826
27 *148:34 *514:14 0.000295035
28 *148:34 *514:16 5.58003e-05
29 *148:42 *413:32 2.35426e-05
30 *1399:C *1399:D 5.5792e-05
31 *1399:C *148:42 3.90213e-05
32 *37:10 *148:42 0.000137754
*RES
1 *1165:X *148:6 23.6214 
2 *148:6 *148:12 34.3707 
3 *148:12 *1166:C 23.2279 
4 *148:12 *148:27 33.8529 
5 *148:27 *1169:A2 23 
6 *148:27 *148:34 3.95643 
7 *148:34 *148:42 32.5323 
8 *148:42 *1325:D 23 
9 *148:34 *1271:A 25.5271 
10 *148:6 *1399:D 29.0486 
*END

*D_NET *149 0.00172186
*CONN
*I *1170:A I *D sky130_fd_sc_hd__nor2_1
*I *1167:B I *D sky130_fd_sc_hd__nor2_1
*I *1166:X O *D sky130_fd_sc_hd__and3_1
*CAP
1 *1170:A 0
2 *1167:B 0
3 *1166:X 0
4 *149:31 0.000234776
5 *149:16 0.000285789
6 *149:4 0.000520565
7 *149:16 *150:8 1.14452e-05
8 *149:16 *244:130 4.25665e-05
9 *149:16 *515:30 1.94284e-05
10 *149:31 *1321:A 5.73309e-05
11 *149:31 *151:12 0
12 *149:31 *244:130 0.000209896
13 *149:31 *402:12 1.14452e-05
14 *149:31 *413:55 0
15 *149:31 *515:14 0.000166513
16 *52:12 *149:16 6.60691e-05
17 *77:10 *149:31 9.60335e-05
18 *144:10 *149:16 0
*RES
1 *1166:X *149:4 23 
2 *149:4 *149:16 34.0807 
3 *149:16 *1167:B 23 
4 *149:4 *149:31 35.9657 
5 *149:31 *1170:A 23 
*END

*D_NET *150 0.00109782
*CONN
*I *1168:B I *D sky130_fd_sc_hd__nor2_1
*I *1167:Y O *D sky130_fd_sc_hd__nor2_1
*CAP
1 *1168:B 0.000111404
2 *1167:Y 0.000189856
3 *150:8 0.00030126
4 *1168:B *244:8 0.000230604
5 *150:8 *244:130 0
6 *1168:A *1168:B 5.67058e-05
7 *1168:A *150:8 0
8 *52:12 *150:8 0.000196549
9 *149:16 *150:8 1.14452e-05
*RES
1 *1167:Y *150:8 42.0186 
2 *150:8 *1168:B 41.3764 
*END

*D_NET *151 0.00136753
*CONN
*I *1170:B I *D sky130_fd_sc_hd__nor2_1
*I *1169:Y O *D sky130_fd_sc_hd__a21oi_1
*CAP
1 *1170:B 7.81984e-05
2 *1169:Y 0.000377444
3 *151:12 0.000455643
4 *1170:B *1321:A 5.33998e-05
5 *1170:B *288:28 6.57815e-06
6 *1170:B *402:29 5.79559e-05
7 *151:12 *1166:B 0.000102389
8 *151:12 *413:55 0.000156143
9 *151:12 *413:77 2.1819e-05
10 *51:10 *1170:B 5.79559e-05
11 *149:31 *151:12 0
*RES
1 *1169:Y *151:12 44.5664 
2 *151:12 *1170:B 40.4443 
*END

*D_NET *152 0.011974
*CONN
*I *1172:A I *D sky130_fd_sc_hd__or2b_1
*I *1200:B I *D sky130_fd_sc_hd__and3b_4
*I *1192:B I *D sky130_fd_sc_hd__nor3b_2
*I *1182:B1 I *D sky130_fd_sc_hd__o2111a_1
*I *1185:A1 I *D sky130_fd_sc_hd__o21ba_1
*I *1178:B I *D sky130_fd_sc_hd__and3_4
*I *1191:B I *D sky130_fd_sc_hd__and3b_4
*I *1188:A I *D sky130_fd_sc_hd__or2_1
*I *1199:C_N I *D sky130_fd_sc_hd__nor3b_4
*I *1195:A_N I *D sky130_fd_sc_hd__and3b_1
*I *1171:X O *D sky130_fd_sc_hd__buf_2
*CAP
1 *1172:A 0
2 *1200:B 0
3 *1192:B 0
4 *1182:B1 0
5 *1185:A1 0
6 *1178:B 0.000308524
7 *1191:B 3.79032e-05
8 *1188:A 0.000107762
9 *1199:C_N 0
10 *1195:A_N 0.000150825
11 *1171:X 0
12 *152:141 0.000474301
13 *152:118 0.000196264
14 *152:105 0.000204804
15 *152:95 0.000651922
16 *152:87 0.000250854
17 *152:72 0.000449835
18 *152:61 0.000397859
19 *152:46 0.000515448
20 *152:24 0.000190048
21 *152:18 0.000374626
22 *152:12 0.000582807
23 *152:4 0.000910745
24 *1178:B *1186:B1 3.44178e-05
25 *1178:B *157:16 5.50049e-05
26 *1178:B *160:12 0.000181919
27 *1178:B *268:22 0.000423021
28 *1178:B *499:19 0.000122838
29 *1178:B *512:21 3.28496e-05
30 *1188:A *160:39 0.000226907
31 *1191:B *1191:C 5.58003e-05
32 *1195:A_N *1185:A2 0.000140865
33 *1195:A_N *157:69 8.48502e-06
34 *1195:A_N *168:16 4.05745e-05
35 *1195:A_N *171:10 5.3304e-05
36 *1195:A_N *512:75 9.58828e-05
37 *1195:A_N *512:82 6.70361e-05
38 *152:12 *1153:B 0
39 *152:12 *1171:A 9.5877e-05
40 *152:12 *245:16 0.000292542
41 *152:12 *329:109 0.000100488
42 *152:12 *330:10 4.28761e-05
43 *152:12 *511:10 0
44 *152:18 *162:10 2.19403e-05
45 *152:18 *167:112 0.000159811
46 *152:18 *245:16 2.05944e-05
47 *152:18 *511:10 7.48414e-05
48 *152:18 *512:92 0.000205569
49 *152:24 *1199:A 3.7681e-05
50 *152:24 *171:10 5.3304e-05
51 *152:24 *512:82 2.02872e-05
52 *152:46 *158:83 1.29944e-05
53 *152:46 *167:112 0.000224831
54 *152:46 *245:16 0.000118509
55 *152:61 *1181:A 0.000272918
56 *152:61 *160:39 8.48502e-06
57 *152:61 *167:6 2.02872e-05
58 *152:61 *167:112 6.08617e-05
59 *152:72 *1186:B1 0.000117247
60 *152:72 *268:22 5.98919e-05
61 *152:72 *288:64 5.6882e-05
62 *152:95 *1185:A2 0.000119389
63 *152:95 *1185:B1_N 6.42943e-05
64 *152:95 *1192:C_N 5.3304e-05
65 *152:105 *1185:B1_N 0.000196966
66 *152:105 *268:22 2.93335e-05
67 *152:118 *437:62 0.000102551
68 *152:118 *499:37 5.56279e-05
69 *152:141 *1153:A 0.000114083
70 *152:141 *329:109 5.66878e-05
71 *152:141 *435:14 0.000132198
72 *1280:B *152:141 7.43209e-05
73 *1280:C *152:141 7.43114e-05
74 *74:10 *1178:B 8.57485e-05
75 *74:10 *152:95 0.000178391
76 *140:21 *152:141 0
77 *142:40 *152:141 0.000296026
78 *142:71 *1188:A 0.000108087
79 *142:71 *1191:B 9.79925e-05
80 *142:71 *152:61 0.000628904
81 *142:73 *152:118 8.36198e-05
*RES
1 *1171:X *152:4 23 
2 *152:4 *152:12 37.975 
3 *152:12 *152:18 18.8321 
4 *152:18 *152:24 16.1186 
5 *152:24 *1195:A_N 26.9357 
6 *152:24 *1199:C_N 23 
7 *152:18 *152:46 18.6664 
8 *152:46 *1188:A 26.5214 
9 *152:46 *152:61 7.31214 
10 *152:61 *1191:B 24.0979 
11 *152:61 *152:72 18.6664 
12 *152:72 *1178:B 46.3271 
13 *152:72 *152:87 15 
14 *152:87 *152:95 5.09571 
15 *152:95 *152:105 33.045 
16 *152:105 *1185:A1 23 
17 *152:95 *152:118 33.2521 
18 *152:118 *1182:B1 23 
19 *152:87 *1192:B 23 
20 *152:12 *1200:B 23 
21 *152:4 *152:141 38.9279 
22 *152:141 *1172:A 23 
*END

*D_NET *153 0.0026351
*CONN
*I *1173:B1 I *D sky130_fd_sc_hd__o21a_1
*I *1172:X O *D sky130_fd_sc_hd__or2b_1
*CAP
1 *1173:B1 0
2 *1172:X 0.000424005
3 *153:22 0.000291564
4 *153:12 0.000715569
5 *153:12 *158:41 7.96425e-05
6 *153:22 *1538:A 0.00018293
7 *153:22 *154:10 0.000480242
8 *153:22 *238:46 1.058e-05
9 *1173:A1 *153:22 0.000123944
10 *1173:A2 *153:22 2.16639e-05
11 *5:21 *153:12 0
12 *138:15 *153:22 0.00011639
13 *138:23 *153:22 0.000141879
14 *141:8 *153:12 2.33476e-05
15 *142:40 *153:12 2.33476e-05
*RES
1 *1172:X *153:12 47.2357 
2 *153:12 *153:22 32.2696 
3 *153:22 *1173:B1 23 
*END

*D_NET *154 0.00334662
*CONN
*I *1275:B I *D sky130_fd_sc_hd__xnor2_2
*I *1175:A2 I *D sky130_fd_sc_hd__o21a_1
*I *1173:X O *D sky130_fd_sc_hd__o21a_1
*CAP
1 *1275:B 1.80182e-05
2 *1175:A2 0.000442906
3 *1173:X 0.00058714
4 *154:10 0.00104806
5 *1175:A2 *158:41 4.45778e-05
6 *1175:A2 *168:24 0.000446957
7 *1175:A2 *245:16 0
8 *1275:B *167:124 5.50106e-05
9 *1275:B *238:10 2.93845e-05
10 *154:10 *1538:A 0.000194318
11 *154:10 *238:10 0
12 *154:10 *245:16 0
13 *1156:A *154:10 0
14 *137:21 *1175:A2 0
15 *153:22 *154:10 0.000480242
*RES
1 *1173:X *154:10 49.4136 
2 *154:10 *1175:A2 45.1671 
3 *154:10 *1275:B 38.6214 
*END

*D_NET *155 0.00226342
*CONN
*I *1175:B1 I *D sky130_fd_sc_hd__o21a_1
*I *1174:X O *D sky130_fd_sc_hd__or2b_1
*CAP
1 *1175:B1 0
2 *1174:X 0.000893944
3 *155:8 0.000893944
4 *155:8 *1174:B_N 7.88828e-05
5 *155:8 *1176:B 4.77213e-05
6 *155:8 *168:24 0.000195242
7 *1175:A1 *155:8 0.000153688
*RES
1 *1174:X *155:8 36.3814 
2 *155:8 *1175:B1 23 
*END

*D_NET *156 0.000657055
*CONN
*I *1176:B I *D sky130_fd_sc_hd__xnor2_4
*I *1175:X O *D sky130_fd_sc_hd__o21a_1
*CAP
1 *1176:B 0.000114675
2 *1175:X 0.000114675
3 *1176:B *168:24 0.000317075
4 *1175:A1 *1176:B 6.29073e-05
5 *155:8 *1176:B 4.77213e-05
*RES
1 *1175:X *1176:B 49.9771 
*END

*D_NET *157 0.0131306
*CONN
*I *1191:C I *D sky130_fd_sc_hd__and3b_4
*I *1188:B I *D sky130_fd_sc_hd__or2_1
*I *1184:B1 I *D sky130_fd_sc_hd__o211a_1
*I *1200:A_N I *D sky130_fd_sc_hd__and3b_4
*I *1199:B I *D sky130_fd_sc_hd__nor3b_4
*I *1195:B I *D sky130_fd_sc_hd__and3b_1
*I *1192:C_N I *D sky130_fd_sc_hd__nor3b_2
*I *1178:C I *D sky130_fd_sc_hd__and3_4
*I *1182:C1 I *D sky130_fd_sc_hd__o2111a_1
*I *1187:A I *D sky130_fd_sc_hd__xor2_1
*I *1177:X O *D sky130_fd_sc_hd__clkbuf_4
*CAP
1 *1191:C 0.000110359
2 *1188:B 8.64499e-05
3 *1184:B1 0
4 *1200:A_N 8.09956e-05
5 *1199:B 0
6 *1195:B 0
7 *1192:C_N 2.32701e-05
8 *1178:C 0
9 *1182:C1 0.000246349
10 *1187:A 0.000458428
11 *1177:X 0.000417239
12 *157:103 0.000386949
13 *157:86 0.000570258
14 *157:75 0.000214703
15 *157:69 0.0004848
16 *157:60 0.000736181
17 *157:56 0.00060319
18 *157:45 0.000263742
19 *157:16 0.000936186
20 *157:12 0.000231409
21 *157:10 0.000639664
22 *157:8 0.000859042
23 *1182:C1 *1183:A2 0.000224204
24 *1182:C1 *444:12 0
25 *1182:C1 *499:37 6.29656e-05
26 *1187:A *1187:B 5.73288e-05
27 *1187:A *159:14 2.46906e-05
28 *1187:A *159:33 0
29 *1187:A *329:18 6.48142e-05
30 *1187:A *329:89 0.000284572
31 *1187:A *444:12 0
32 *1188:B *245:16 0.000152171
33 *1188:B *330:10 4.13477e-05
34 *1191:C *1186:B1 0.000166387
35 *1191:C *163:154 0.000159425
36 *1192:C_N *1185:A2 5.3304e-05
37 *1200:A_N *238:46 2.58979e-05
38 *1200:A_N *330:10 2.78653e-05
39 *157:8 *268:16 0.000360963
40 *157:10 *1187:B 4.96264e-05
41 *157:10 *158:22 0.000164282
42 *157:10 *163:154 0.000236946
43 *157:10 *254:16 0
44 *157:10 *329:18 0
45 *157:10 *499:8 0.000136282
46 *157:10 *499:19 0.0008322
47 *157:16 *160:12 0.000226759
48 *157:16 *512:21 4.57742e-05
49 *157:45 *1186:B1 0.000157459
50 *157:45 *163:154 0.000280345
51 *157:45 *499:19 0.000255122
52 *157:56 *1186:B1 8.22445e-05
53 *157:56 *163:154 7.51016e-05
54 *157:60 *1185:A2 1.41129e-05
55 *157:60 *168:16 0.000354651
56 *157:60 *268:22 0.000179725
57 *157:69 *168:16 4.08664e-05
58 *157:69 *171:10 0.000112344
59 *157:75 *171:10 0.000142678
60 *157:75 *245:16 8.73786e-05
61 *157:75 *330:10 2.12352e-05
62 *157:86 *171:10 0.000142423
63 *157:86 *238:46 1.37184e-05
64 *157:86 *330:10 1.21857e-05
65 *157:103 *1184:C1 1.05658e-05
66 *157:103 *171:10 6.88838e-05
67 *157:103 *172:12 6.17437e-06
68 *157:103 *175:14 4.96675e-06
69 *157:103 *437:152 3.57152e-05
70 *1178:B *157:16 5.50049e-05
71 *1191:B *1191:C 5.58003e-05
72 *1195:A_N *157:69 8.48502e-06
73 *142:40 *157:103 9.1744e-06
74 *142:55 *157:103 8.36198e-05
75 *142:71 *1191:C 2.02872e-05
76 *142:77 *1182:C1 0
77 *142:77 *1187:A 0
78 *142:77 *157:10 0
79 *152:95 *1192:C_N 5.3304e-05
*RES
1 *1177:X *157:8 43.8621 
2 *157:8 *157:10 13.1743 
3 *157:10 *157:12 15 
4 *157:12 *157:16 20.3857 
5 *157:16 *1187:A 47.3421 
6 *157:16 *1182:C1 42.64 
7 *157:12 *1178:C 23 
8 *157:10 *157:45 5.77929 
9 *157:45 *1192:C_N 38.6214 
10 *157:45 *157:56 1.20143 
11 *157:56 *157:60 21.3386 
12 *157:60 *1195:B 23 
13 *157:60 *157:69 18.48 
14 *157:69 *157:75 17.7757 
15 *157:75 *1199:B 23 
16 *157:75 *157:86 17.4236 
17 *157:86 *1200:A_N 39.5536 
18 *157:86 *157:103 35.3857 
19 *157:103 *1184:B1 38 
20 *157:69 *1188:B 40.2579 
21 *157:56 *1191:C 41.3557 
*END

*D_NET *158 0.0375793
*CONN
*I *1234:A2 I *D sky130_fd_sc_hd__a21o_1
*I *1261:A2 I *D sky130_fd_sc_hd__a21o_1
*I *1216:A2 I *D sky130_fd_sc_hd__a21o_1
*I *1243:A2 I *D sky130_fd_sc_hd__a21o_1
*I *1225:A2 I *D sky130_fd_sc_hd__a21o_1
*I *1252:A2 I *D sky130_fd_sc_hd__a21o_1
*I *1207:A2 I *D sky130_fd_sc_hd__a21o_1
*I *1194:A2 I *D sky130_fd_sc_hd__a21o_1
*I *1179:B1 I *D sky130_fd_sc_hd__o211a_1
*I *1178:X O *D sky130_fd_sc_hd__and3_4
*CAP
1 *1234:A2 0
2 *1261:A2 0.000115374
3 *1216:A2 0
4 *1243:A2 5.42423e-05
5 *1225:A2 0
6 *1252:A2 0
7 *1207:A2 2.73526e-05
8 *1194:A2 2.31178e-05
9 *1179:B1 0
10 *1178:X 2.09638e-05
11 *158:200 0.00042472
12 *158:170 0.000576549
13 *158:158 0.00273057
14 *158:135 0.00359734
15 *158:121 0.00200437
16 *158:102 0.000713588
17 *158:91 0.00066664
18 *158:83 0.00189059
19 *158:68 0.00128206
20 *158:45 0.00188055
21 *158:41 0.00216215
22 *158:22 0.000395878
23 *158:12 0.00220704
24 *158:6 0.00128559
25 *1194:A2 *1380:A 0
26 *1207:A2 *1302:S 0.000100486
27 *1207:A2 *252:10 6.17437e-06
28 *1207:A2 *477:26 3.09094e-05
29 *1243:A2 *167:84 2.64616e-05
30 *1243:A2 *328:135 2.33476e-05
31 *1243:A2 *434:12 2.11066e-05
32 *1261:A2 *1261:A1 8.06118e-05
33 *1261:A2 *1261:B1 4.3198e-05
34 *1261:A2 *1480:CLK 1.59071e-05
35 *158:6 *160:12 5.50049e-05
36 *158:6 *512:21 1.39317e-05
37 *158:12 *268:22 0.000331749
38 *158:12 *288:64 0.000665666
39 *158:22 *1317:A 5.67058e-05
40 *158:22 *329:14 2.58416e-05
41 *158:22 *437:8 5.50049e-05
42 *158:41 *329:14 1.98587e-05
43 *158:41 *510:6 0.000180212
44 *158:41 *510:19 0.000342591
45 *158:41 *515:44 3.87221e-06
46 *158:45 *1154:A 0.000398768
47 *158:45 *1363:A_N 5.3304e-05
48 *158:45 *1380:A 0.000138444
49 *158:45 *167:124 0.00157137
50 *158:45 *167:138 3.07986e-05
51 *158:45 *258:8 2.93845e-05
52 *158:45 *277:10 0.000133901
53 *158:45 *514:92 8.34394e-05
54 *158:45 *514:115 0.000166987
55 *158:68 *1194:A1 5.56279e-05
56 *158:68 *1343:A1 9.88678e-05
57 *158:68 *167:138 7.98807e-05
58 *158:68 *170:12 5.40337e-05
59 *158:68 *179:12 0
60 *158:68 *481:10 1.59071e-05
61 *158:68 *483:8 3.9991e-05
62 *158:68 *486:8 4.48671e-05
63 *158:68 *488:32 4.40504e-05
64 *158:68 *488:51 0.000431341
65 *158:68 *488:61 0.000401208
66 *158:83 *1632:A 0.000361305
67 *158:83 *160:12 0.000163466
68 *158:83 *167:10 0
69 *158:83 *167:25 0
70 *158:83 *167:112 0.000639422
71 *158:83 *168:24 0.000464112
72 *158:83 *245:16 0
73 *158:83 *249:10 0
74 *158:83 *329:109 9.17998e-05
75 *158:83 *364:21 0
76 *158:83 *437:40 3.96108e-05
77 *158:83 *444:66 0
78 *158:83 *512:21 1.85916e-05
79 *158:91 *167:25 0.000603932
80 *158:91 *247:8 0
81 *158:91 *249:10 0
82 *158:91 *364:21 3.92407e-05
83 *158:91 *394:12 0.000165593
84 *158:102 *167:25 8.54354e-05
85 *158:102 *167:38 0.000111145
86 *158:102 *288:90 6.0839e-05
87 *158:102 *394:12 1.14452e-05
88 *158:102 *438:42 0.000212905
89 *158:121 *1225:B1 5.5792e-05
90 *158:121 *198:6 0.000233211
91 *158:121 *202:22 2.20494e-05
92 *158:121 *250:10 8.7579e-05
93 *158:121 *263:10 2.45549e-06
94 *158:121 *333:16 2.93104e-06
95 *158:121 *454:10 0.000226745
96 *158:135 *1337:A0 2.05042e-05
97 *158:135 *1337:S 7.82513e-05
98 *158:135 *1352:A 7.09965e-06
99 *158:135 *167:65 9.58744e-05
100 *158:135 *195:18 0.000128952
101 *158:135 *211:16 0
102 *158:135 *263:10 6.53345e-06
103 *158:135 *335:63 0.000333866
104 *158:135 *363:24 2.11157e-05
105 *158:135 *438:75 0.000572939
106 *158:158 *1261:B1 0.000306338
107 *158:158 *1504:CLK 0.000247106
108 *158:158 *165:90 4.69154e-05
109 *158:158 *195:18 0.000385793
110 *158:158 *230:10 5.50049e-05
111 *158:158 *258:104 0.000351473
112 *158:158 *335:106 2.11066e-05
113 *158:158 *345:20 1.22803e-05
114 *158:158 *471:8 0.000176875
115 *158:170 *1221:A1 0.000162486
116 *158:170 *1485:CLK 1.61901e-05
117 *158:170 *190:8 5.56356e-05
118 *158:170 *246:10 0.00039503
119 *158:170 *258:122 1.30921e-05
120 *158:200 *1234:A1 0.000100803
121 *158:200 *1234:B1 0.000276214
122 *158:200 *1457:CLK 0.000269855
123 *158:200 *219:24 6.48373e-05
124 *158:200 *396:8 0.000170163
125 *158:200 *444:66 0.00044667
126 *1175:A2 *158:41 4.45778e-05
127 *1457:D *158:200 6.09588e-05
128 *1487:D *158:68 0.000233156
129 *1490:D *158:135 0.000217987
130 *58:8 *158:83 2.76611e-06
131 *58:8 *158:91 0
132 *142:77 *158:22 5.51058e-05
133 *142:128 *158:121 0.000139691
134 *152:46 *158:83 1.29944e-05
135 *153:12 *158:41 7.96425e-05
136 *157:10 *158:22 0.000164282
*RES
1 *1178:X *158:6 23.6214 
2 *158:6 *158:12 38.9486 
3 *158:12 *158:22 36.3593 
4 *158:22 *1179:B1 23 
5 *158:12 *158:41 41.8402 
6 *158:41 *158:45 36.1079 
7 *158:45 *1194:A2 23.4971 
8 *158:45 *158:68 38.1793 
9 *158:68 *1207:A2 39.0979 
10 *158:6 *158:83 36.4807 
11 *158:83 *158:91 11.6414 
12 *158:91 *1252:A2 38 
13 *158:91 *158:102 20.7793 
14 *158:102 *1225:A2 23 
15 *158:102 *158:121 40.3364 
16 *158:121 *158:135 43.1272 
17 *158:135 *1243:A2 46.9425 
18 *158:135 *158:158 37.0152 
19 *158:158 *158:170 42.5943 
20 *158:170 *1216:A2 23 
21 *158:158 *1261:A2 25.5479 
22 *158:83 *158:200 28.0293 
23 *158:200 *1234:A2 23 
*END

*D_NET *159 0.00295163
*CONN
*I *1183:B1_N I *D sky130_fd_sc_hd__o21ba_1
*I *1180:B I *D sky130_fd_sc_hd__xor2_1
*I *1179:X O *D sky130_fd_sc_hd__o211a_1
*CAP
1 *1183:B1_N 0
2 *1180:B 7.32985e-05
3 *1179:X 6.05248e-05
4 *159:33 0.000299676
5 *159:14 0.00064317
6 *159:8 0.00033072
7 *159:8 *329:18 2.79004e-05
8 *159:14 *1187:B 0.00010889
9 *159:33 *1183:A1 0
10 *159:33 *244:83 0.00025307
11 *159:33 *444:12 0.000621028
12 *1187:A *159:14 2.46906e-05
13 *1187:A *159:33 0
14 *1472:D *159:14 0.000102389
15 *49:10 *159:33 0.00019654
16 *76:10 *159:14 0.000187345
17 *142:77 *159:8 2.23884e-05
*RES
1 *1179:X *159:8 39.2014 
2 *159:8 *159:14 20.8829 
3 *159:14 *1180:B 24.1186 
4 *159:14 *159:33 39.715 
5 *159:33 *1183:B1_N 23 
*END

*D_NET *160 0.0391096
*CONN
*I *1263:A1 I *D sky130_fd_sc_hd__a21oi_1
*I *1227:A1 I *D sky130_fd_sc_hd__a21oi_1
*I *1254:A1 I *D sky130_fd_sc_hd__a21oi_1
*I *1245:A1 I *D sky130_fd_sc_hd__a21oi_1
*I *1218:A1 I *D sky130_fd_sc_hd__a21oi_1
*I *1209:A1 I *D sky130_fd_sc_hd__a21oi_1
*I *1198:A1 I *D sky130_fd_sc_hd__a21oi_1
*I *1236:A1 I *D sky130_fd_sc_hd__a21oi_1
*I *1190:A I *D sky130_fd_sc_hd__or2_4
*I *1183:A1 I *D sky130_fd_sc_hd__o21ba_1
*I *1181:X O *D sky130_fd_sc_hd__clkbuf_4
*CAP
1 *1263:A1 0
2 *1227:A1 0.000555787
3 *1254:A1 0.000278905
4 *1245:A1 0.000169799
5 *1218:A1 0
6 *1209:A1 8.35292e-05
7 *1198:A1 0.000502581
8 *1236:A1 0
9 *1190:A 0.000229825
10 *1183:A1 4.04967e-05
11 *1181:X 0
12 *160:177 0.00320349
13 *160:154 0.00324991
14 *160:150 0.00181609
15 *160:113 0.00126908
16 *160:99 0.000744145
17 *160:97 0.00209362
18 *160:93 0.0018411
19 *160:70 0.00128239
20 *160:45 0.00100328
21 *160:39 0.00191689
22 *160:12 0.00117926
23 *160:4 0.00265115
24 *1183:A1 *1183:A2 5.12055e-06
25 *1190:A *165:38 0.000187161
26 *1190:A *165:61 8.55549e-05
27 *1190:A *166:10 0.000211272
28 *1190:A *278:53 0.000286999
29 *1190:A *434:10 0.000228633
30 *1190:A *434:12 0
31 *1198:A1 *1197:A 6.17437e-06
32 *1198:A1 *1198:A2 8.16279e-05
33 *1198:A1 *1198:B1 0
34 *1198:A1 *186:14 0
35 *1198:A1 *299:129 0.000172019
36 *1198:A1 *477:66 0
37 *1209:A1 *1209:A2 5.81185e-05
38 *1209:A1 *332:96 2.193e-05
39 *1227:A1 *165:179 5.3304e-05
40 *1227:A1 *378:10 0.00022542
41 *1245:A1 *176:77 5.04554e-05
42 *1245:A1 *215:8 8.10876e-05
43 *1254:A1 *1254:B1 4.17736e-05
44 *1254:A1 *165:171 5.67058e-05
45 *1254:A1 *309:95 5.3304e-05
46 *1254:A1 *309:105 3.47781e-05
47 *1254:A1 *378:10 4.51431e-05
48 *1254:A1 *422:92 3.81154e-05
49 *160:12 *1183:A2 4.84129e-06
50 *160:12 *1473:CLK 0.000185347
51 *160:12 *162:10 6.94835e-05
52 *160:12 *329:105 8.51049e-05
53 *160:12 *437:40 4.81195e-05
54 *160:12 *512:21 6.51477e-06
55 *160:12 *512:44 4.63931e-05
56 *160:12 *512:48 1.39344e-05
57 *160:12 *512:59 3.92853e-05
58 *160:39 *1189:A 5.71047e-05
59 *160:39 *1281:A1 0.000219666
60 *160:39 *1444:A1 0.000100398
61 *160:39 *167:6 1.35999e-05
62 *160:39 *167:112 0.000254162
63 *160:39 *238:46 0.000135037
64 *160:39 *309:10 0
65 *160:39 *330:50 0.00021827
66 *160:39 *330:65 0.000421406
67 *160:45 *172:22 0.000440203
68 *160:45 *175:14 3.36354e-05
69 *160:70 *1236:A2 0.000182826
70 *160:70 *1236:B1 1.4345e-05
71 *160:70 *166:10 0.000505454
72 *160:70 *208:12 1.14154e-05
73 *160:70 *278:53 0.000360607
74 *160:70 *299:14 6.47893e-05
75 *160:93 *1219:B2 0.000166799
76 *160:93 *1236:B1 1.7383e-05
77 *160:93 *1426:A0 2.02517e-05
78 *160:93 *1533:CLK 0.000502289
79 *160:93 *1553:A 0.0001148
80 *160:93 *208:12 5.14746e-06
81 *160:93 *456:10 8.4047e-05
82 *160:93 *474:10 7.04466e-06
83 *160:97 *1219:A1 0.000180218
84 *160:97 *1219:B2 2.9938e-05
85 *160:97 *332:74 6.46508e-05
86 *160:97 *332:78 0.000343681
87 *160:97 *350:14 3.22879e-05
88 *160:99 *166:106 0.000110913
89 *160:99 *172:66 4.49946e-05
90 *160:113 *165:135 0.000329403
91 *160:113 *166:106 0.000332514
92 *160:113 *183:10 0.000163256
93 *160:113 *299:129 0.000245626
94 *160:113 *332:86 9.43282e-05
95 *160:113 *332:96 0.000185692
96 *160:150 *1261:B1 0.000132825
97 *160:150 *1263:A2 2.93747e-05
98 *160:150 *166:106 0.000133833
99 *160:150 *166:118 0.000195981
100 *160:150 *172:66 0.000300326
101 *160:150 *234:10 0.00017671
102 *160:150 *245:121 0.000371023
103 *160:150 *299:109 0.00161677
104 *160:150 *309:54 0
105 *160:150 *336:144 3.70553e-06
106 *160:150 *382:8 0.000138718
107 *160:150 *393:10 8.62876e-05
108 *160:150 *401:44 0
109 *160:154 *1263:B1 9.84851e-05
110 *160:154 *232:16 0.000142513
111 *160:154 *336:133 5.27215e-06
112 *160:154 *336:144 4.48931e-05
113 *160:177 *163:66 0.000188627
114 *160:177 *299:80 0.000726378
115 *160:177 *299:97 0.000245681
116 *160:177 *309:37 0.000144215
117 *160:177 *309:95 0.000130134
118 *1178:B *160:12 0.000181919
119 *1188:A *160:39 0.000226907
120 *1520:D *160:154 9.95543e-06
121 *1525:D *160:97 1.74843e-05
122 *48:10 *160:12 0.000321352
123 *55:10 *160:150 3.81554e-05
124 *64:10 *160:113 8.57485e-05
125 *142:61 *160:39 9.59556e-05
126 *142:71 *160:39 2.34392e-05
127 *152:61 *160:39 8.48502e-06
128 *157:16 *160:12 0.000226759
129 *158:6 *160:12 5.50049e-05
130 *158:83 *160:12 0.000163466
131 *159:33 *1183:A1 0
*RES
1 *1181:X *160:4 23 
2 *160:4 *160:12 49.2229 
3 *160:12 *1183:A1 23.8493 
4 *160:4 *160:39 41.6386 
5 *160:39 *160:45 35.8621 
6 *160:45 *1190:A 45.6643 
7 *160:45 *160:70 25.7093 
8 *160:70 *1236:A1 23 
9 *160:70 *160:93 45.6186 
10 *160:93 *160:97 28.485 
11 *160:97 *160:99 1.55357 
12 *160:99 *160:113 45.4736 
13 *160:113 *1198:A1 46.6586 
14 *160:113 *1209:A1 39.5743 
15 *160:99 *1218:A1 38 
16 *160:97 *160:150 45.1807 
17 *160:150 *160:154 24.6736 
18 *160:154 *1245:A1 40.5271 
19 *160:154 *160:177 21.9621 
20 *160:177 *1254:A1 42.1532 
21 *160:177 *1227:A1 46.7311 
22 *160:150 *1263:A1 23 
*END

*D_NET *161 0.00185846
*CONN
*I *1183:A2 I *D sky130_fd_sc_hd__o21ba_1
*I *1185:B1_N I *D sky130_fd_sc_hd__o21ba_1
*I *1182:X O *D sky130_fd_sc_hd__o2111a_1
*CAP
1 *1183:A2 0.000277701
2 *1185:B1_N 0.000333844
3 *1182:X 0
4 *161:6 0.000611546
5 *1183:A2 *444:12 0
6 *1185:B1_N *1185:A2 8.19664e-05
7 *1185:B1_N *268:22 5.79785e-05
8 *1185:B1_N *444:12 0
9 *1182:C1 *1183:A2 0.000224204
10 *1183:A1 *1183:A2 5.12055e-06
11 *152:95 *1185:B1_N 6.42943e-05
12 *152:105 *1185:B1_N 0.000196966
13 *160:12 *1183:A2 4.84129e-06
*RES
1 *1182:X *161:6 38 
2 *161:6 *1185:B1_N 44.96 
3 *161:6 *1183:A2 44.5043 
*END

*D_NET *162 0.0038433
*CONN
*I *1185:A2 I *D sky130_fd_sc_hd__o21ba_1
*I *1184:X O *D sky130_fd_sc_hd__o211a_1
*CAP
1 *1185:A2 0.000341396
2 *1184:X 0.000711759
3 *162:10 0.00105315
4 *1185:A2 *168:16 0.000309966
5 *1185:A2 *268:22 0.000479319
6 *1185:A2 *512:75 1.358e-05
7 *162:10 *176:14 8.21172e-05
8 *162:10 *437:40 0.000156225
9 *162:10 *511:10 5.3368e-05
10 *162:10 *512:92 0.000141352
11 *1185:B1_N *1185:A2 8.19664e-05
12 *1192:C_N *1185:A2 5.3304e-05
13 *1195:A_N *1185:A2 0.000140865
14 *152:18 *162:10 2.19403e-05
15 *152:95 *1185:A2 0.000119389
16 *157:60 *1185:A2 1.41129e-05
17 *160:12 *162:10 6.94835e-05
*RES
1 *1184:X *162:10 48.0257 
2 *162:10 *1185:A2 47.6943 
*END

*D_NET *163 0.0459831
*CONN
*I *1213:S I *D sky130_fd_sc_hd__mux2_1
*I *1204:S I *D sky130_fd_sc_hd__mux2_1
*I *1187:B I *D sky130_fd_sc_hd__xor2_1
*I *1249:S I *D sky130_fd_sc_hd__mux2_1
*I *1240:S I *D sky130_fd_sc_hd__mux2_1
*I *1267:S I *D sky130_fd_sc_hd__mux2_1
*I *1258:S I *D sky130_fd_sc_hd__mux2_1
*I *1231:S I *D sky130_fd_sc_hd__mux2_1
*I *1222:S I *D sky130_fd_sc_hd__mux2_1
*I *1186:X O *D sky130_fd_sc_hd__o21a_4
*CAP
1 *1213:S 0
2 *1204:S 6.80114e-05
3 *1187:B 0.00028043
4 *1249:S 1.26784e-05
5 *1240:S 0
6 *1267:S 0
7 *1258:S 0
8 *1231:S 2.41748e-05
9 *1222:S 0
10 *1186:X 0
11 *163:230 0.000276343
12 *163:222 0.00131515
13 *163:203 0.0013982
14 *163:199 0.00214539
15 *163:189 0.00279511
16 *163:173 0.00254325
17 *163:154 0.00271938
18 *163:125 0.00017644
19 *163:112 0.000679521
20 *163:98 0.00149745
21 *163:86 0.00327992
22 *163:80 0.00250471
23 *163:70 0.000289122
24 *163:66 0.0026322
25 *163:45 0.00347644
26 *163:24 0.00151988
27 *163:14 0.00120477
28 *163:4 0.00139905
29 *1187:B *329:14 0.000269994
30 *1204:S *1204:A0 5.70419e-05
31 *1204:S *413:22 0.000208259
32 *1249:S *1311:A 0
33 *1249:S *219:24 1.14154e-05
34 *163:14 *1311:A 0.000171296
35 *163:14 *219:24 7.87939e-05
36 *163:14 *254:29 0
37 *163:14 *348:8 6.23442e-05
38 *163:14 *436:14 0.000210877
39 *163:24 *1250:A 0
40 *163:24 *1311:A 1.24376e-05
41 *163:24 *195:18 5.75756e-06
42 *163:24 *219:24 2.73248e-05
43 *163:24 *254:46 0.000545923
44 *163:24 *418:12 0.00014411
45 *163:24 *430:29 0
46 *163:45 *1222:A0 9.41704e-05
47 *163:45 *1231:A0 2.93845e-05
48 *163:45 *1355:S 0.000162753
49 *163:45 *1640:A 0
50 *163:45 *203:12 0.000323999
51 *163:45 *204:10 0
52 *163:45 *273:10 6.48356e-05
53 *163:45 *333:20 0.000333035
54 *163:45 *455:10 0
55 *163:66 *1467:CLK 2.05503e-05
56 *163:66 *167:65 0
57 *163:66 *299:22 2.12147e-05
58 *163:66 *336:12 3.55303e-05
59 *163:70 *1240:A0 5.41288e-05
60 *163:70 *254:82 0.00021694
61 *163:70 *299:34 5.12254e-05
62 *163:80 *211:16 7.56417e-05
63 *163:80 *299:22 4.90891e-05
64 *163:80 *336:6 0.000313255
65 *163:80 *336:34 0.000356724
66 *163:86 *1266:B1 8.72697e-05
67 *163:86 *166:135 0.000189272
68 *163:86 *235:10 0.000405895
69 *163:86 *336:34 0.000364826
70 *163:86 *336:40 9.34971e-05
71 *163:86 *337:25 0.000139781
72 *163:86 *339:10 0.000137651
73 *163:86 *433:76 2.00918e-05
74 *163:86 *500:10 1.55671e-05
75 *163:98 *1340:A 1.21972e-05
76 *163:98 *1485:CLK 5.0977e-05
77 *163:98 *246:10 0
78 *163:98 *258:122 0.000184714
79 *163:98 *299:109 0
80 *163:112 *228:14 0.000100069
81 *163:112 *264:10 8.36198e-05
82 *163:112 *466:35 0.000243498
83 *163:125 *235:10 0.000290572
84 *163:125 *337:25 8.17543e-05
85 *163:154 *1186:B1 8.24578e-05
86 *163:154 *436:14 0.000319414
87 *163:154 *437:62 0.000229975
88 *163:154 *444:31 0.00029191
89 *163:154 *512:10 0.000240173
90 *163:173 *238:14 0.000418643
91 *163:173 *244:100 9.47227e-05
92 *163:189 *258:40 2.05503e-05
93 *163:199 *1487:CLK 6.32794e-05
94 *163:199 *168:48 0.000148584
95 *163:199 *170:18 0.000568414
96 *163:199 *268:86 0
97 *163:199 *318:14 0.00033896
98 *163:199 *331:38 1.794e-05
99 *163:199 *351:12 0.000189054
100 *163:199 *352:10 3.81803e-05
101 *163:199 *360:14 6.08751e-05
102 *163:203 *413:22 0.000370881
103 *163:222 *1204:A0 0.000277896
104 *163:222 *331:114 0.000353906
105 *163:222 *331:129 2.06822e-05
106 *163:222 *399:29 3.13898e-06
107 *163:222 *413:22 6.75333e-05
108 *163:230 *1213:A0 0.000100061
109 *163:230 *254:127 0
110 *163:230 *331:129 0.000188325
111 *163:230 *488:16 1.26815e-05
112 *163:230 *492:6 7.12098e-05
113 *1156:D *163:173 0.000613851
114 *1156:D *163:189 9.13317e-06
115 *1186:A1 *163:154 8.06804e-06
116 *1187:A *1187:B 5.73288e-05
117 *1191:C *163:154 0.000159425
118 *1460:D *163:222 0.000130114
119 *1470:D *163:222 5.55238e-05
120 *1472:D *1187:B 0.000106318
121 *1485:D *163:98 8.06804e-06
122 *1503:D *163:199 5.99746e-05
123 *5:21 *163:189 0
124 *43:10 *163:45 0
125 *71:10 *163:230 1.51481e-05
126 *81:10 *163:98 4.22374e-05
127 *90:10 *163:24 0
128 *93:10 *163:45 0
129 *109:10 *163:45 0.000135772
130 *138:23 *163:173 2.03764e-06
131 *140:8 *163:189 9.4798e-06
132 *142:73 *163:154 5.04612e-05
133 *142:77 *1187:B 5.21127e-05
134 *142:77 *163:154 0.000192125
135 *157:10 *1187:B 4.96264e-05
136 *157:10 *163:154 0.000236946
137 *157:45 *163:154 0.000280345
138 *157:56 *163:154 7.51016e-05
139 *159:14 *1187:B 0.00010889
140 *160:177 *163:66 0.000188627
*RES
1 *1186:X *163:4 23 
2 *163:4 *163:14 41.9107 
3 *163:14 *163:24 45.4736 
4 *163:24 *1222:S 23 
5 *163:24 *163:45 49.6371 
6 *163:45 *1231:S 23.4971 
7 *163:45 *163:66 37.7853 
8 *163:66 *163:70 17.5271 
9 *163:70 *163:80 36.7114 
10 *163:80 *163:86 34.1371 
11 *163:86 *163:98 42.8221 
12 *163:98 *163:112 42.4079 
13 *163:112 *1258:S 23 
14 *163:86 *163:125 34.785 
15 *163:125 *1267:S 23 
16 *163:70 *1240:S 23 
17 *163:14 *1249:S 23.4971 
18 *163:4 *163:154 38.2 
19 *163:154 *1187:B 45.4571 
20 *163:154 *163:173 37.0607 
21 *163:173 *163:189 48.8652 
22 *163:189 *163:199 47.4179 
23 *163:199 *163:203 19.4329 
24 *163:203 *1204:S 25.7757 
25 *163:203 *163:222 45.7843 
26 *163:222 *163:230 36.1936 
27 *163:230 *1213:S 23 
*END

*D_NET *164 0.000193475
*CONN
*I *1189:A I *D sky130_fd_sc_hd__clkbuf_4
*I *1188:X O *D sky130_fd_sc_hd__or2_1
*CAP
1 *1189:A 1.69097e-05
2 *1188:X 1.69097e-05
3 *142:61 *1189:A 4.44329e-05
4 *142:71 *1189:A 5.8118e-05
5 *160:39 *1189:A 5.71047e-05
*RES
1 *1188:X *1189:A 47.0979 
*END

*D_NET *165 0.0307719
*CONN
*I *1254:B1 I *D sky130_fd_sc_hd__a21oi_1
*I *1227:B1 I *D sky130_fd_sc_hd__a21oi_1
*I *1209:B1 I *D sky130_fd_sc_hd__a21oi_1
*I *1198:B1 I *D sky130_fd_sc_hd__a21oi_1
*I *1218:B1 I *D sky130_fd_sc_hd__a21oi_1
*I *1263:B1 I *D sky130_fd_sc_hd__a21oi_1
*I *1245:B1 I *D sky130_fd_sc_hd__a21oi_1
*I *1236:B1 I *D sky130_fd_sc_hd__a21oi_1
*I *1190:B I *D sky130_fd_sc_hd__or2_4
*I *1189:X O *D sky130_fd_sc_hd__clkbuf_4
*CAP
1 *1254:B1 2.51393e-05
2 *1227:B1 0
3 *1209:B1 9.5073e-05
4 *1198:B1 0.000288128
5 *1218:B1 0
6 *1263:B1 0.000162037
7 *1245:B1 0.000497179
8 *1236:B1 0.000367878
9 *1190:B 0
10 *1189:X 3.30156e-05
11 *165:179 0.000304168
12 *165:171 0.00039281
13 *165:165 0.00150108
14 *165:139 0.000663048
15 *165:135 0.000667719
16 *165:120 0.000471747
17 *165:90 0.00186244
18 *165:82 0.00238358
19 *165:63 0.00146436
20 *165:61 0.000959672
21 *165:38 0.00231863
22 *165:8 0.00282955
23 *1198:B1 *186:14 0.000106986
24 *1209:B1 *1211:B1 1.59071e-05
25 *1209:B1 *185:18 6.68705e-05
26 *1236:B1 *1533:CLK 9.62909e-05
27 *1236:B1 *208:12 6.67149e-05
28 *1245:B1 *1245:A2 3.81057e-05
29 *1245:B1 *1420:A0 2.32004e-05
30 *1245:B1 *216:16 5.37348e-06
31 *1245:B1 *309:37 7.73389e-05
32 *1245:B1 *309:54 7.88828e-05
33 *1245:B1 *310:10 3.22879e-05
34 *1245:B1 *401:44 0.000183733
35 *1254:B1 *422:30 1.59094e-05
36 *1263:B1 *232:16 9.84851e-05
37 *1263:B1 *234:10 0
38 *1263:B1 *479:8 4.71113e-05
39 *165:38 *1285:A1 0.000214518
40 *165:38 *1285:A2 0.000155736
41 *165:38 *1536:A 0.000199733
42 *165:38 *166:10 0.000108309
43 *165:38 *176:14 0.000618612
44 *165:38 *238:46 0.000390306
45 *165:38 *434:10 0.000206226
46 *165:38 *437:152 0.000398524
47 *165:61 *166:10 0.00014384
48 *165:61 *166:76 0.000131563
49 *165:61 *172:26 0
50 *165:61 *175:33 1.48547e-05
51 *165:61 *175:50 2.23467e-05
52 *165:61 *268:86 0
53 *165:61 *326:10 0.000325513
54 *165:61 *328:36 6.26708e-06
55 *165:61 *434:12 0
56 *165:61 *456:10 0.000210018
57 *165:61 *499:63 0.000335652
58 *165:82 *1533:CLK 8.2615e-05
59 *165:82 *315:10 5.67058e-05
60 *165:82 *332:46 1.64001e-05
61 *165:82 *466:47 0.000571494
62 *165:90 *1219:A1 0
63 *165:90 *1567:A 0
64 *165:90 *194:16 0
65 *165:90 *234:10 0
66 *165:90 *309:54 0.000946303
67 *165:90 *315:10 0.000178661
68 *165:90 *335:99 4.78057e-05
69 *165:90 *335:106 2.97779e-05
70 *165:90 *345:20 0
71 *165:90 *366:27 2.45703e-05
72 *165:90 *401:54 0
73 *165:90 *401:82 0.000159276
74 *165:90 *471:8 0.000292401
75 *165:90 *504:8 8.62876e-05
76 *165:120 *1430:A0 0.000223692
77 *165:120 *466:43 0.000180218
78 *165:120 *466:47 8.6949e-05
79 *165:135 *1430:A0 5.3304e-05
80 *165:135 *1579:A 4.82016e-05
81 *165:135 *166:106 3.31149e-05
82 *165:135 *172:66 0.000405908
83 *165:135 *466:43 4.08664e-05
84 *165:139 *166:106 2.94161e-05
85 *165:139 *299:129 6.38342e-05
86 *165:139 *332:96 0
87 *165:139 *383:23 4.62726e-05
88 *165:139 *442:8 8.78864e-05
89 *165:165 *1234:B1 7.75329e-06
90 *165:165 *1298:A1 0.000166049
91 *165:165 *245:33 0.00071328
92 *165:165 *258:60 0
93 *165:165 *260:8 5.91573e-05
94 *165:165 *330:50 0
95 *165:165 *333:108 0
96 *165:165 *422:44 5.61888e-05
97 *165:165 *437:89 5.69096e-05
98 *165:165 *437:112 0.00129168
99 *165:165 *437:122 1.01003e-05
100 *165:165 *437:152 0.000103123
101 *165:165 *445:8 8.62876e-05
102 *165:165 *448:8 8.62876e-05
103 *165:165 *455:50 0.000255576
104 *165:165 *455:74 0.000365559
105 *165:165 *455:78 1.74959e-05
106 *165:171 *1422:S 0
107 *165:171 *199:10 0
108 *165:171 *223:10 1.32314e-05
109 *165:171 *422:30 3.17516e-05
110 *165:179 *200:8 0.000110913
111 *165:179 *201:10 8.16356e-05
112 *165:179 *381:10 0.000136486
113 *165:179 *422:44 6.48142e-05
114 *165:179 *445:8 3.28876e-05
115 *1190:A *165:38 0.000187161
116 *1190:A *165:61 8.55549e-05
117 *1198:A1 *1198:B1 0
118 *1227:A1 *165:179 5.3304e-05
119 *1254:A1 *1254:B1 4.17736e-05
120 *1254:A1 *165:171 5.67058e-05
121 *1501:D *165:82 2.54551e-05
122 *1533:D *1236:B1 4.9054e-06
123 *60:10 *165:90 0.000163256
124 *82:10 *165:165 0.000217543
125 *84:10 *165:165 0
126 *116:8 *165:165 0
127 *134:10 *165:61 0
128 *135:8 *165:61 0.000112294
129 *142:40 *165:38 0
130 *142:61 *165:8 5.58003e-05
131 *158:158 *165:90 4.69154e-05
132 *160:70 *1236:B1 1.4345e-05
133 *160:93 *1236:B1 1.7383e-05
134 *160:113 *165:135 0.000329403
135 *160:154 *1263:B1 9.84851e-05
*RES
1 *1189:X *165:8 38.6214 
2 *165:8 *165:38 46.9207 
3 *165:38 *1190:B 23 
4 *165:38 *165:61 48.3942 
5 *165:61 *165:63 15 
6 *165:63 *1236:B1 28.9243 
7 *165:63 *165:82 17.5657 
8 *165:82 *165:90 43.7307 
9 *165:90 *1245:B1 49.1857 
10 *165:90 *1263:B1 41.3557 
11 *165:82 *165:120 3.00357 
12 *165:120 *1218:B1 23 
13 *165:120 *165:135 38.5757 
14 *165:135 *165:139 19.7229 
15 *165:139 *1198:B1 43.075 
16 *165:139 *1209:B1 39.595 
17 *165:8 *165:165 36.1257 
18 *165:165 *165:171 16.595 
19 *165:171 *165:179 36.4007 
20 *165:179 *1227:B1 23 
21 *165:171 *1254:B1 23.6214 
*END

*D_NET *166 0.0273806
*CONN
*I *1266:A2 I *D sky130_fd_sc_hd__o22a_1
*I *1221:A2 I *D sky130_fd_sc_hd__o22a_1
*I *1203:A2 I *D sky130_fd_sc_hd__o22a_1
*I *1212:A2 I *D sky130_fd_sc_hd__o22a_1
*I *1248:A2 I *D sky130_fd_sc_hd__o22a_1
*I *1230:A2 I *D sky130_fd_sc_hd__o22a_1
*I *1257:A2 I *D sky130_fd_sc_hd__o22a_1
*I *1239:A2 I *D sky130_fd_sc_hd__o22a_1
*I *1190:X O *D sky130_fd_sc_hd__or2_4
*CAP
1 *1266:A2 0
2 *1221:A2 0.000139931
3 *1203:A2 8.48e-05
4 *1212:A2 0.000283347
5 *1248:A2 0.000538109
6 *1230:A2 0
7 *1257:A2 0.000202108
8 *1239:A2 0.000215304
9 *1190:X 0
10 *166:135 0.000557057
11 *166:120 0.000696987
12 *166:118 0.000591808
13 *166:106 0.00144656
14 *166:78 0.000622847
15 *166:76 0.00270818
16 *166:46 0.000901507
17 *166:25 0.00180293
18 *166:21 0.00130555
19 *166:10 0.00120253
20 *166:4 0.00251784
21 *1203:A2 *488:26 6.47916e-05
22 *1212:A2 *186:14 0.000428682
23 *1212:A2 *465:8 0
24 *1212:A2 *486:8 0
25 *1221:A2 *251:10 0.000188901
26 *1221:A2 *335:106 6.5117e-06
27 *1239:A2 *335:27 0.000313249
28 *1248:A2 *213:10 5.8752e-05
29 *1248:A2 *214:10 2.5415e-05
30 *1248:A2 *261:10 1.14452e-05
31 *1248:A2 *278:57 0
32 *1248:A2 *328:135 0.000364757
33 *1248:A2 *438:92 0.000132931
34 *1257:A2 *222:8 0.000142632
35 *1257:A2 *227:10 5.50049e-05
36 *166:10 *176:34 0.000212905
37 *166:10 *209:12 0.000252396
38 *166:10 *278:57 0
39 *166:10 *299:14 7.75329e-06
40 *166:10 *313:8 0.000567678
41 *166:10 *328:10 6.68793e-05
42 *166:10 *328:75 4.71168e-05
43 *166:10 *328:135 1.45549e-05
44 *166:10 *487:8 4.334e-05
45 *166:21 *328:135 3.83778e-05
46 *166:25 *227:10 0.000994123
47 *166:46 *1332:A 4.72245e-05
48 *166:46 *219:12 0
49 *166:46 *226:14 0.000158414
50 *166:46 *258:60 0
51 *166:46 *341:18 1.20996e-05
52 *166:76 *1451:A 1.77795e-05
53 *166:76 *1502:CLK 0.000349457
54 *166:76 *1568:A 0.000174899
55 *166:76 *359:16 4.93086e-05
56 *166:76 *441:10 9.66585e-05
57 *166:76 *477:83 0.000141347
58 *166:76 *499:63 0.000120171
59 *166:78 *1202:A2 0.000130036
60 *166:78 *186:14 0.000616631
61 *166:78 *384:8 0.000114083
62 *166:78 *465:8 0
63 *166:106 *1202:A2 6.43556e-05
64 *166:106 *1220:A1 2.43944e-05
65 *166:106 *1562:A 1.59094e-05
66 *166:106 *172:66 0.000134584
67 *166:106 *186:14 0.000106754
68 *166:106 *299:109 0.000111042
69 *166:106 *332:86 0.000131204
70 *166:106 *382:8 0.000138718
71 *166:106 *383:23 0.00018928
72 *166:106 *464:10 0.000299187
73 *166:118 *1290:A0 0.000137525
74 *166:118 *229:16 0.000310612
75 *166:118 *245:121 0.000213332
76 *166:118 *309:54 0.000518615
77 *166:118 *345:20 0.000100486
78 *166:118 *472:10 0.000163352
79 *166:135 *1260:A1 0
80 *166:135 *1597:A 0
81 *166:135 *175:74 0
82 *166:135 *335:106 5.71002e-06
83 *166:135 *337:25 2.93845e-05
84 *166:135 *345:20 3.21898e-05
85 *166:135 *401:54 0.000504178
86 *166:135 *470:8 0
87 *1190:A *166:10 0.000211272
88 *82:10 *166:46 9.92983e-05
89 *107:8 *166:46 4.13477e-05
90 *160:70 *166:10 0.000505454
91 *160:99 *166:106 0.000110913
92 *160:113 *166:106 0.000332514
93 *160:150 *166:106 0.000133833
94 *160:150 *166:118 0.000195981
95 *163:86 *166:135 0.000189272
96 *165:38 *166:10 0.000108309
97 *165:61 *166:10 0.00014384
98 *165:61 *166:76 0.000131563
99 *165:135 *166:106 3.31149e-05
100 *165:139 *166:106 2.94161e-05
*RES
1 *1190:X *166:4 23 
2 *166:4 *166:10 37.8686 
3 *166:10 *1239:A2 41.48 
4 *166:10 *166:21 1.20143 
5 *166:21 *166:25 26.1029 
6 *166:25 *1257:A2 26.0036 
7 *166:25 *166:46 44.6864 
8 *166:46 *1230:A2 23 
9 *166:21 *1248:A2 49.4136 
10 *166:4 *166:76 42.3014 
11 *166:76 *166:78 8.24429 
12 *166:78 *1212:A2 43.7793 
13 *166:78 *1203:A2 39.0979 
14 *166:76 *166:106 35.2171 
15 *166:106 *166:118 46.2607 
16 *166:118 *166:120 15 
17 *166:120 *1221:A2 40.9621 
18 *166:120 *166:135 27.2007 
19 *166:135 *1266:A2 23 
*END

*D_NET *167 0.0290376
*CONN
*I *1206:A2 I *D sky130_fd_sc_hd__a22o_1
*I *1193:A2 I *D sky130_fd_sc_hd__a22o_1
*I *1215:A2 I *D sky130_fd_sc_hd__a22o_1
*I *1260:A2 I *D sky130_fd_sc_hd__a22o_1
*I *1242:A2 I *D sky130_fd_sc_hd__a22o_1
*I *1224:A2 I *D sky130_fd_sc_hd__a22o_1
*I *1251:A2 I *D sky130_fd_sc_hd__a22o_1
*I *1233:A2 I *D sky130_fd_sc_hd__a22o_1
*I *1191:X O *D sky130_fd_sc_hd__and3b_4
*CAP
1 *1206:A2 0.000319197
2 *1193:A2 0
3 *1215:A2 0
4 *1260:A2 0
5 *1242:A2 8.21522e-05
6 *1224:A2 2.70431e-05
7 *1251:A2 0.00013761
8 *1233:A2 0
9 *1191:X 9.69417e-05
10 *167:142 0.000441825
11 *167:138 0.000976172
12 *167:124 0.00229959
13 *167:112 0.00217819
14 *167:101 0.000496777
15 *167:84 0.00155101
16 *167:65 0.00331627
17 *167:38 0.00263304
18 *167:25 0.00103882
19 *167:10 0.000842443
20 *167:6 0.00119644
21 *1206:A2 *1487:CLK 4.2588e-05
22 *1206:A2 *179:12 0
23 *1206:A2 *245:151 4.38353e-05
24 *1206:A2 *275:8 8.78864e-05
25 *1206:A2 *331:36 1.5997e-05
26 *1206:A2 *331:38 1.7403e-05
27 *1206:A2 *351:31 5.38471e-05
28 *1206:A2 *477:36 3.55936e-05
29 *1224:A2 *1484:CLK 1.14452e-05
30 *1224:A2 *438:42 1.00765e-05
31 *1242:A2 *213:10 2.02872e-05
32 *1242:A2 *363:24 0
33 *1242:A2 *438:92 0.000119825
34 *1251:A2 *1251:B1 0.000187363
35 *1251:A2 *438:42 8.55549e-05
36 *167:6 *1181:A 0.000142678
37 *167:10 *288:64 0
38 *167:10 *437:40 6.50313e-05
39 *167:10 *438:10 3.81554e-05
40 *167:10 *444:46 3.70187e-05
41 *167:10 *512:59 8.0612e-06
42 *167:25 *364:21 0.000169683
43 *167:25 *438:23 0.000311137
44 *167:25 *444:46 0.000179702
45 *167:38 *197:8 0.000169319
46 *167:38 *288:98 6.17437e-06
47 *167:38 *333:10 2.193e-05
48 *167:38 *333:91 4.53082e-05
49 *167:38 *397:12 8.57485e-05
50 *167:38 *438:42 0.000155994
51 *167:65 *195:18 0
52 *167:65 *214:10 0.00010018
53 *167:65 *226:14 0
54 *167:65 *271:8 8.62876e-05
55 *167:65 *335:63 0.000109052
56 *167:65 *347:8 0.000141954
57 *167:65 *363:24 5.3304e-05
58 *167:65 *438:69 0.000125342
59 *167:65 *438:75 6.63159e-06
60 *167:65 *438:92 1.45836e-05
61 *167:84 *1347:S 0.00036785
62 *167:84 *1348:A 0.000254359
63 *167:84 *1383:A0 4.75206e-05
64 *167:84 *1383:S 0
65 *167:84 *176:77 0.000180109
66 *167:84 *213:10 8.06804e-06
67 *167:84 *269:8 1.32646e-05
68 *167:84 *438:104 4.77164e-06
69 *167:101 *1260:A1 0.000137533
70 *167:101 *194:16 7.17358e-06
71 *167:101 *195:10 0.000160873
72 *167:101 *227:10 9.24795e-06
73 *167:101 *229:16 0.000138859
74 *167:101 *245:102 3.80273e-05
75 *167:101 *288:121 0.00010096
76 *167:101 *335:99 1.37232e-05
77 *167:101 *345:20 4.22172e-05
78 *167:101 *366:27 3.08847e-05
79 *167:101 *438:104 0.00010018
80 *167:112 *1181:A 0.000142678
81 *167:112 *168:24 0.000302472
82 *167:112 *245:16 0.000261997
83 *167:124 *1154:A 6.90217e-05
84 *167:124 *1363:A_N 5.3304e-05
85 *167:124 *238:10 0.000116233
86 *167:124 *510:19 0.00078694
87 *167:124 *510:36 0.00026666
88 *167:138 *1194:A1 6.86315e-06
89 *167:138 *1487:CLK 1.94693e-05
90 *167:138 *328:48 1.02561e-05
91 *167:138 *360:14 2.30292e-05
92 *167:138 *488:51 8.00741e-05
93 *167:138 *488:61 0.000326873
94 *167:142 *1487:CLK 7.45997e-05
95 *167:142 *179:12 0
96 *1157:A *167:124 3.59414e-05
97 *1243:A2 *167:84 2.64616e-05
98 *1275:B *167:124 5.50106e-05
99 *89:10 *167:84 5.79559e-05
100 *139:12 *167:124 0.000276209
101 *142:128 *1224:A2 0
102 *142:128 *167:38 0
103 *152:18 *167:112 0.000159811
104 *152:46 *167:112 0.000224831
105 *152:61 *167:6 2.02872e-05
106 *152:61 *167:112 6.08617e-05
107 *158:45 *167:124 0.00157137
108 *158:45 *167:138 3.07986e-05
109 *158:68 *167:138 7.98807e-05
110 *158:83 *167:10 0
111 *158:83 *167:25 0
112 *158:83 *167:112 0.000639422
113 *158:91 *167:25 0.000603932
114 *158:102 *167:25 8.54354e-05
115 *158:102 *167:38 0.000111145
116 *158:135 *167:65 9.58744e-05
117 *160:39 *167:6 1.35999e-05
118 *160:39 *167:112 0.000254162
119 *163:66 *167:65 0
*RES
1 *1191:X *167:6 25.0507 
2 *167:6 *167:10 21.1314 
3 *167:10 *1233:A2 38 
4 *167:10 *167:25 29.645 
5 *167:25 *1251:A2 26.0036 
6 *167:25 *167:38 25.4711 
7 *167:38 *1224:A2 38.6732 
8 *167:38 *167:65 47.681 
9 *167:65 *1242:A2 25.6618 
10 *167:65 *167:84 49.8029 
11 *167:84 *1260:A2 23 
12 *167:84 *167:101 40.5021 
13 *167:101 *1215:A2 23 
14 *167:6 *167:112 35.0514 
15 *167:112 *167:124 48.7021 
16 *167:124 *167:138 42.3871 
17 *167:138 *167:142 17.2579 
18 *167:142 *1193:A2 38 
19 *167:142 *1206:A2 45.1671 
*END

*D_NET *168 0.0147366
*CONN
*I *1632:A I *D sky130_fd_sc_hd__clkbuf_2
*I *1193:B1 I *D sky130_fd_sc_hd__a22o_1
*I *1206:B1 I *D sky130_fd_sc_hd__a22o_1
*I *1192:Y O *D sky130_fd_sc_hd__nor3b_2
*CAP
1 *1632:A 0.000222092
2 *1193:B1 3.57094e-05
3 *1206:B1 0
4 *1192:Y 4.46582e-05
5 *168:48 0.00030315
6 *168:38 0.00151283
7 *168:24 0.00235576
8 *168:16 0.00154742
9 *168:8 0.00018819
10 *1193:B1 *258:14 5.3304e-05
11 *1193:B1 *368:25 2.02872e-05
12 *1632:A *435:31 5.3304e-05
13 *1632:A *437:40 0.000349084
14 *1632:A *437:81 1.59094e-05
15 *168:8 *268:22 0.000112541
16 *168:8 *288:64 0.000112541
17 *168:16 *171:10 3.86731e-05
18 *168:24 *1152:B 0
19 *168:24 *245:16 0
20 *168:24 *437:40 0.00119993
21 *168:24 *510:12 0.000136486
22 *168:24 *510:36 0.000364122
23 *168:38 *1155:B 9.58714e-05
24 *168:38 *1193:B2 0.000182832
25 *168:38 *1327:A 5.50106e-05
26 *168:38 *1327:B 4.95081e-05
27 *168:38 *1361:A0 0.000124632
28 *168:38 *1361:A1 5.50106e-05
29 *168:38 *1361:S 0.000315386
30 *168:38 *257:10 1.73399e-05
31 *168:38 *258:14 0.000723361
32 *168:38 *331:8 0.000576699
33 *168:38 *368:25 0.000133384
34 *168:38 *510:36 3.75074e-05
35 *168:48 *1360:A 1.21972e-05
36 *168:48 *1487:CLK 0.000181482
37 *168:48 *331:36 0.000227378
38 *168:48 *331:38 9.10172e-05
39 *168:48 *331:105 6.17437e-06
40 *168:48 *351:12 0.000189894
41 *1175:A1 *168:24 1.41077e-05
42 *1175:A2 *168:24 0.000446957
43 *1176:B *168:24 0.000317075
44 *1185:A2 *168:16 0.000309966
45 *1195:A_N *168:16 4.05745e-05
46 *155:8 *168:24 0.000195242
47 *157:60 *168:16 0.000354651
48 *157:69 *168:16 4.08664e-05
49 *158:83 *1632:A 0.000361305
50 *158:83 *168:24 0.000464112
51 *163:199 *168:48 0.000148584
52 *167:112 *168:24 0.000302472
*RES
1 *1192:Y *168:8 39.5536 
2 *168:8 *168:16 34.93 
3 *168:16 *168:24 48.06 
4 *168:24 *168:38 29.8079 
5 *168:38 *168:48 37.9543 
6 *168:48 *1206:B1 23 
7 *168:38 *1193:B1 24.1186 
8 *168:16 *1632:A 43.6964 
*END

*D_NET *169 0.00255469
*CONN
*I *1194:B1 I *D sky130_fd_sc_hd__a21o_1
*I *1193:X O *D sky130_fd_sc_hd__a22o_1
*CAP
1 *1194:B1 0
2 *1193:X 0.00070474
3 *169:10 0.00070474
4 *169:10 *1194:A1 0.000163352
5 *169:10 *258:14 0.000870938
6 *169:10 *435:58 0
7 *169:10 *488:61 0.000110922
*RES
1 *1193:X *169:10 49.9314 
2 *169:10 *1194:B1 38 
*END

*D_NET *170 0.00399192
*CONN
*I *1203:B1 I *D sky130_fd_sc_hd__o22a_1
*I *1194:X O *D sky130_fd_sc_hd__a21o_1
*CAP
1 *1203:B1 0
2 *1194:X 0.000138034
3 *170:18 0.00066366
4 *170:12 0.000801694
5 *170:12 *481:10 0.000172039
6 *170:18 *1203:B2 8.56776e-05
7 *170:18 *1434:A0 0.000187129
8 *170:18 *179:8 0.000528014
9 *170:18 *317:10 0.00020971
10 *170:18 *360:6 0.000180218
11 *170:18 *360:27 0.00026808
12 *170:18 *488:26 1.4345e-05
13 *170:18 *488:32 0.000120867
14 *158:68 *170:12 5.40337e-05
15 *163:199 *170:18 0.000568414
*RES
1 *1194:X *170:12 41.1486 
2 *170:12 *170:18 33.7464 
3 *170:18 *1203:B1 23 
*END

*D_NET *171 0.00148238
*CONN
*I *1196:A I *D sky130_fd_sc_hd__buf_2
*I *1195:X O *D sky130_fd_sc_hd__and3b_1
*CAP
1 *1196:A 0
2 *1195:X 0.0004069
3 *171:10 0.0004069
4 *171:10 *172:12 1.83107e-05
5 *171:10 *175:14 2.64616e-05
6 *171:10 *512:82 1.21972e-05
7 *1195:A_N *171:10 5.3304e-05
8 *152:24 *171:10 5.3304e-05
9 *157:69 *171:10 0.000112344
10 *157:75 *171:10 0.000142678
11 *157:86 *171:10 0.000142423
12 *157:103 *171:10 6.88838e-05
13 *168:16 *171:10 3.86731e-05
*RES
1 *1195:X *171:10 31.7621 
2 *171:10 *1196:A 23 
*END

*D_NET *172 0.0266612
*CONN
*I *1247:A2 I *D sky130_fd_sc_hd__a211o_1
*I *1265:A2 I *D sky130_fd_sc_hd__a211o_1
*I *1256:A2 I *D sky130_fd_sc_hd__a211o_1
*I *1229:A2 I *D sky130_fd_sc_hd__a211o_1
*I *1211:A2 I *D sky130_fd_sc_hd__a211o_1
*I *1202:A2 I *D sky130_fd_sc_hd__a211o_1
*I *1220:A2 I *D sky130_fd_sc_hd__a211o_1
*I *1238:A2 I *D sky130_fd_sc_hd__a211o_1
*I *1196:X O *D sky130_fd_sc_hd__buf_2
*CAP
1 *1247:A2 0
2 *1265:A2 0.00141274
3 *1256:A2 3.74149e-05
4 *1229:A2 0.000641909
5 *1211:A2 5.16353e-05
6 *1202:A2 0.00031338
7 *1220:A2 0
8 *1238:A2 1.39696e-05
9 *1196:X 0.000907297
10 *172:110 0.00131936
11 *172:108 0.00239375
12 *172:98 0.00137868
13 *172:66 0.000982111
14 *172:53 0.00142938
15 *172:28 0.000826252
16 *172:26 0.00169315
17 *172:22 0.00108354
18 *172:12 0.00133539
19 *1202:A2 *1202:A1 0.000228001
20 *1202:A2 *174:10 0.0002263
21 *1202:A2 *309:62 0
22 *1202:A2 *477:83 8.36198e-05
23 *1211:A2 *1432:A0 7.17698e-05
24 *1211:A2 *185:18 0.000141355
25 *1229:A2 *1229:A1 0.000303697
26 *1229:A2 *1256:A1 7.00185e-05
27 *1229:A2 *1601:A 0.00017293
28 *1229:A2 *378:14 0.000233367
29 *1229:A2 *422:30 6.37005e-05
30 *1229:A2 *461:10 9.41704e-05
31 *1238:A2 *425:18 8.91472e-06
32 *1256:A2 *1256:A1 1.14154e-05
33 *1265:A2 *1265:A1 3.08966e-05
34 *1265:A2 *1265:B1 4.5475e-05
35 *1265:A2 *1265:C1 2.07242e-05
36 *1265:A2 *1522:CLK 0.000271906
37 *1265:A2 *1582:A 5.51963e-05
38 *1265:A2 *371:23 9.84851e-05
39 *1265:A2 *379:6 1.10105e-05
40 *1265:A2 *403:10 0.000136743
41 *172:12 *175:14 0.000300479
42 *172:12 *330:58 1.12796e-05
43 *172:22 *175:14 0.000609984
44 *172:22 *175:33 0.000163108
45 *172:22 *209:8 9.66585e-05
46 *172:22 *309:10 2.56091e-05
47 *172:22 *447:8 4.41821e-06
48 *172:26 *1237:A1 9.52071e-05
49 *172:26 *1612:A 6.68378e-05
50 *172:26 *208:12 0.000136019
51 *172:26 *380:12 0.000194327
52 *172:26 *434:12 6.56907e-05
53 *172:26 *456:10 0
54 *172:53 *1220:A1 3.91386e-05
55 *172:53 *1357:A1 0.000656731
56 *172:53 *1358:A 6.34357e-05
57 *172:53 *1393:A1 0.000172171
58 *172:53 *194:16 0.000157045
59 *172:53 *210:12 9.84851e-05
60 *172:53 *294:10 9.75779e-05
61 *172:53 *425:18 0.00016371
62 *172:53 *425:28 0.000470227
63 *172:66 *1220:A1 0.000101652
64 *172:66 *185:18 0.000137744
65 *172:66 *192:12 0.000136755
66 *172:66 *193:10 0.000163361
67 *172:66 *194:16 1.4345e-05
68 *172:66 *309:54 7.75329e-06
69 *172:66 *309:56 0.00014182
70 *172:66 *425:28 1.22822e-05
71 *172:98 *1294:A1 6.68252e-05
72 *172:98 *1544:A 0
73 *172:98 *248:10 0.000130561
74 *172:98 *254:105 2.31209e-05
75 *172:98 *328:20 0
76 *172:98 *379:12 9.28078e-06
77 *172:98 *433:20 7.41357e-05
78 *172:98 *433:22 4.48731e-05
79 *172:98 *434:12 0.000860072
80 *172:108 *254:105 4.9662e-05
81 *172:108 *278:57 0
82 *172:108 *419:12 3.04806e-05
83 *172:108 *434:12 0.000338188
84 *172:110 *1256:A1 2.30292e-05
85 *172:110 *1256:B1 2.64616e-05
86 *172:110 *1256:C1 0.000354091
87 *172:110 *379:6 2.45549e-06
88 *1522:D *1265:A2 6.09914e-06
89 *1531:D *172:12 5.82853e-05
90 *57:8 *172:98 0.000363595
91 *94:8 *172:98 0
92 *134:10 *172:26 5.15745e-05
93 *157:103 *172:12 6.17437e-06
94 *160:45 *172:22 0.000440203
95 *160:99 *172:66 4.49946e-05
96 *160:150 *172:66 0.000300326
97 *165:61 *172:26 0
98 *165:135 *172:66 0.000405908
99 *166:78 *1202:A2 0.000130036
100 *166:106 *1202:A2 6.43556e-05
101 *166:106 *172:66 0.000134584
102 *171:10 *172:12 1.83107e-05
*RES
1 *1196:X *172:12 37.8521 
2 *172:12 *172:22 40.7714 
3 *172:22 *172:26 28.5264 
4 *172:26 *172:28 15 
5 *172:28 *1238:A2 23.3832 
6 *172:28 *172:53 22.5786 
7 *172:53 *1220:A2 23 
8 *172:53 *172:66 32.9593 
9 *172:66 *1202:A2 46.3064 
10 *172:66 *1211:A2 39.5743 
11 *172:26 *172:98 39.215 
12 *172:98 *172:108 36.3179 
13 *172:108 *172:110 12.5321 
14 *172:110 *1229:A2 35.4286 
15 *172:110 *1256:A2 23.8493 
16 *172:108 *1265:A2 44.6671 
17 *172:98 *1247:A2 23 
*END

*D_NET *173 0.000189683
*CONN
*I *1198:A2 I *D sky130_fd_sc_hd__a21oi_1
*I *1197:Y O *D sky130_fd_sc_hd__inv_2
*CAP
1 *1198:A2 5.40275e-05
2 *1197:Y 5.40275e-05
3 *1198:A1 *1198:A2 8.16279e-05
*RES
1 *1197:Y *1198:A2 47.5743 
*END

*D_NET *174 0.00112907
*CONN
*I *1202:B1 I *D sky130_fd_sc_hd__a211o_1
*I *1198:Y O *D sky130_fd_sc_hd__a21oi_1
*CAP
1 *1202:B1 0
2 *1198:Y 0.000390154
3 *174:10 0.000390154
4 *174:10 *1202:A1 5.25017e-05
5 *174:10 *1563:A 6.99589e-05
6 *1202:A2 *174:10 0.0002263
*RES
1 *1198:Y *174:10 30.8093 
2 *174:10 *1202:B1 23 
*END

*D_NET *175 0.0258755
*CONN
*I *1264:A2 I *D sky130_fd_sc_hd__a22o_1
*I *1246:A2 I *D sky130_fd_sc_hd__a22o_1
*I *1255:A2 I *D sky130_fd_sc_hd__a22o_1
*I *1228:A2 I *D sky130_fd_sc_hd__a22o_1
*I *1219:A2 I *D sky130_fd_sc_hd__a22o_1
*I *1201:A2 I *D sky130_fd_sc_hd__a22o_1
*I *1210:A2 I *D sky130_fd_sc_hd__a22o_1
*I *1237:A2 I *D sky130_fd_sc_hd__a22o_1
*I *1199:Y O *D sky130_fd_sc_hd__nor3b_4
*CAP
1 *1264:A2 0.000246744
2 *1246:A2 0
3 *1255:A2 0
4 *1228:A2 0.000874256
5 *1219:A2 2.77218e-05
6 *1201:A2 0.000413419
7 *1210:A2 1.94238e-05
8 *1237:A2 1.45819e-05
9 *1199:Y 0.00127746
10 *175:114 0.000270206
11 *175:86 0.00126897
12 *175:78 0.00150564
13 *175:74 0.00229222
14 *175:63 0.00151011
15 *175:50 0.00137658
16 *175:33 0.00128964
17 *175:14 0.00187672
18 *1201:A2 *1201:B1 0.000166269
19 *1201:A2 *1375:S 0.000218252
20 *1201:A2 *278:31 0.000446232
21 *1201:A2 *332:10 0
22 *1201:A2 *441:10 8.57577e-05
23 *1210:A2 *1210:B2 5.56356e-05
24 *1210:A2 *359:24 5.3304e-05
25 *1219:A2 *1219:A1 5.3304e-05
26 *1219:A2 *332:74 2.64616e-05
27 *1228:A2 *1228:B1 0.000829274
28 *1228:A2 *1255:A1 0.000104578
29 *1228:A2 *1446:A1 1.1258e-05
30 *1228:A2 *1497:CLK 8.15864e-05
31 *1228:A2 *1556:A 5.62318e-05
32 *1228:A2 *201:10 0.000102538
33 *1228:A2 *354:6 0.000182695
34 *1237:A2 *1237:A1 5.55743e-06
35 *1264:A2 *1264:A1 3.26241e-05
36 *1264:A2 *176:77 0.000130792
37 *1264:A2 *353:6 3.95777e-05
38 *1264:A2 *385:12 5.82853e-05
39 *175:14 *1237:A1 3.26241e-05
40 *175:14 *1237:B2 9.41704e-05
41 *175:14 *176:24 4.05745e-05
42 *175:14 *388:8 0.000324909
43 *175:33 *1237:A1 5.76187e-05
44 *175:33 *326:10 0.000192564
45 *175:33 *391:10 2.93469e-05
46 *175:50 *431:14 0.000840079
47 *175:63 *1201:B1 7.42079e-06
48 *175:63 *1219:A1 0.000112803
49 *175:63 *1375:S 0.000201112
50 *175:63 *1547:A 6.47893e-05
51 *175:63 *176:64 4.2651e-05
52 *175:63 *466:51 0.000222718
53 *175:63 *466:73 0.000185755
54 *175:74 *1260:A1 0.000434243
55 *175:74 *1597:A 0.000131735
56 *175:74 *176:77 0.00209914
57 *175:74 *195:10 7.0013e-05
58 *175:74 *233:8 0
59 *175:74 *288:121 0.000717007
60 *175:74 *310:10 6.2873e-05
61 *175:74 *315:10 0
62 *175:74 *401:54 0
63 *175:74 *466:73 0.000234392
64 *175:78 *1407:A 5.56279e-05
65 *175:86 *1370:A 9.84794e-05
66 *175:86 *225:8 6.23469e-05
67 *175:86 *278:57 1.0092e-05
68 *175:114 *176:95 0.000186945
69 *175:114 *433:14 0.000284697
70 *175:114 *433:16 9.88765e-05
71 *175:114 *433:18 0.00024816
72 *175:114 *434:12 6.8172e-05
73 *1497:D *1228:A2 3.08942e-05
74 *1531:D *175:14 1.45094e-05
75 *1534:D *175:33 5.99746e-05
76 *99:8 *175:86 7.74127e-05
77 *115:10 *175:78 3.23186e-05
78 *121:8 *175:74 0.000168744
79 *126:8 *175:74 0
80 *157:103 *175:14 4.96675e-06
81 *160:45 *175:14 3.36354e-05
82 *165:61 *175:33 1.48547e-05
83 *165:61 *175:50 2.23467e-05
84 *166:135 *175:74 0
85 *171:10 *175:14 2.64616e-05
86 *172:12 *175:14 0.000300479
87 *172:22 *175:14 0.000609984
88 *172:22 *175:33 0.000163108
*RES
1 *1199:Y *175:14 46.0964 
2 *175:14 *1237:A2 23.4971 
3 *175:14 *175:33 26.8693 
4 *175:33 *1210:A2 38.6214 
5 *175:33 *175:50 18.0085 
6 *175:50 *1201:A2 47.7461 
7 *175:50 *175:63 8.06821 
8 *175:63 *1219:A2 38.6214 
9 *175:63 *175:74 34.3029 
10 *175:74 *175:78 28.9614 
11 *175:78 *175:86 37.8714 
12 *175:86 *1228:A2 43.6107 
13 *175:86 *1255:A2 23 
14 *175:78 *175:114 38.5964 
15 *175:114 *1246:A2 23 
16 *175:74 *1264:A2 43.7793 
*END

*D_NET *176 0.0264933
*CONN
*I *1237:B1 I *D sky130_fd_sc_hd__a22o_1
*I *1264:B1 I *D sky130_fd_sc_hd__a22o_1
*I *1246:B1 I *D sky130_fd_sc_hd__a22o_1
*I *1255:B1 I *D sky130_fd_sc_hd__a22o_1
*I *1228:B1 I *D sky130_fd_sc_hd__a22o_1
*I *1219:B1 I *D sky130_fd_sc_hd__a22o_1
*I *1201:B1 I *D sky130_fd_sc_hd__a22o_1
*I *1210:B1 I *D sky130_fd_sc_hd__a22o_1
*I *1200:X O *D sky130_fd_sc_hd__and3b_4
*CAP
1 *1237:B1 0
2 *1264:B1 0.000131605
3 *1246:B1 0
4 *1255:B1 0
5 *1228:B1 0.00071788
6 *1219:B1 0
7 *1201:B1 0.000688747
8 *1210:B1 0
9 *1200:X 0.000771906
10 *176:95 0.00107665
11 *176:87 0.00141787
12 *176:77 0.00286898
13 *176:64 0.00205393
14 *176:45 0.00169908
15 *176:34 0.00112746
16 *176:24 0.000782786
17 *176:14 0.0010619
18 *1201:B1 *1201:B2 1.37232e-05
19 *1201:B1 *177:8 2.34437e-05
20 *1201:B1 *332:10 0
21 *1201:B1 *332:29 0
22 *1201:B1 *332:42 0
23 *1201:B1 *359:16 0.000203655
24 *1201:B1 *392:8 0
25 *1201:B1 *441:10 5.1436e-05
26 *1228:B1 *1228:B2 1.92324e-05
27 *1228:B1 *1255:A1 1.47795e-05
28 *1228:B1 *1497:CLK 0.000144501
29 *1228:B1 *1556:A 0.000200672
30 *1228:B1 *278:75 0.000768274
31 *1228:B1 *459:10 0.000232627
32 *176:14 *1285:A1 0.000500964
33 *176:14 *1285:A2 2.54635e-05
34 *176:14 *1285:B1 9.79925e-05
35 *176:14 *1444:A0 0.000367267
36 *176:14 *1536:A 0.000364782
37 *176:14 *499:63 0.000143709
38 *176:24 *1237:B2 8.17328e-05
39 *176:24 *258:40 0.000111941
40 *176:24 *299:14 2.89294e-05
41 *176:24 *388:8 0.000145163
42 *176:34 *1210:B2 5.68958e-05
43 *176:34 *209:12 5.02106e-05
44 *176:34 *330:75 9.77616e-05
45 *176:34 *356:8 0.00018221
46 *176:34 *434:12 2.64191e-05
47 *176:45 *1210:B2 1.10658e-05
48 *176:45 *1450:A0 8.87449e-05
49 *176:45 *1526:CLK 0.000276734
50 *176:45 *1548:A 6.58415e-06
51 *176:45 *359:24 0.000318662
52 *176:64 *332:42 0
53 *176:64 *332:74 0
54 *176:64 *350:14 2.76611e-06
55 *176:64 *466:51 0.000109969
56 *176:64 *466:73 9.27814e-05
57 *176:77 *319:84 0
58 *176:77 *335:12 4.35499e-05
59 *176:77 *335:85 0
60 *176:77 *350:14 0.000122363
61 *176:77 *371:23 4.66036e-05
62 *176:77 *433:76 0
63 *176:77 *438:104 0.00010339
64 *176:77 *466:73 0.000122407
65 *176:77 *500:10 0
66 *176:87 *1246:A1 0.000262831
67 *176:87 *1246:B2 5.90675e-06
68 *176:87 *1365:A0 0.000131304
69 *176:87 *1439:A 2.18409e-05
70 *176:87 *1550:A 0.000220302
71 *176:87 *278:87 0.000449427
72 *176:87 *320:10 0
73 *176:87 *336:116 0
74 *176:87 *401:27 0.000213736
75 *176:95 *278:75 0.000269099
76 *176:95 *434:12 0.000399139
77 *1184:A1 *176:14 2.61708e-05
78 *1201:A2 *1201:B1 0.000166269
79 *1228:A2 *1228:B1 0.000829274
80 *1245:A1 *176:77 5.04554e-05
81 *1264:A2 *176:77 0.000130792
82 *1497:D *1228:B1 9.05169e-05
83 *105:14 *176:77 0
84 *142:40 *176:14 5.75843e-05
85 *162:10 *176:14 8.21172e-05
86 *165:38 *176:14 0.000618612
87 *166:10 *176:34 0.000212905
88 *167:84 *176:77 0.000180109
89 *175:14 *176:24 4.05745e-05
90 *175:63 *1201:B1 7.42079e-06
91 *175:63 *176:64 4.2651e-05
92 *175:74 *176:77 0.00209914
93 *175:114 *176:95 0.000186945
*RES
1 *1200:X *176:14 43.8386 
2 *176:14 *176:24 35.5307 
3 *176:24 *176:34 40.5021 
4 *176:34 *1210:B1 23 
5 *176:34 *176:45 24.6943 
6 *176:45 *1201:B1 49.1857 
7 *176:45 *176:64 7.54 
8 *176:64 *1219:B1 38 
9 *176:64 *176:77 37.8346 
10 *176:77 *176:87 36.0354 
11 *176:87 *176:95 38.4307 
12 *176:95 *1228:B1 44.17 
13 *176:95 *1255:B1 23 
14 *176:87 *1246:B1 23 
15 *176:77 *1264:B1 40.8689 
16 *176:24 *1237:B1 23 
*END

*D_NET *177 0.000527009
*CONN
*I *1202:C1 I *D sky130_fd_sc_hd__a211o_1
*I *1201:X O *D sky130_fd_sc_hd__a22o_1
*CAP
1 *1202:C1 0
2 *1201:X 0.000251783
3 *177:8 0.000251783
4 *1201:B1 *177:8 2.34437e-05
*RES
1 *1201:X *177:8 27.8057 
2 *177:8 *1202:C1 23 
*END

*D_NET *178 0.00147424
*CONN
*I *1203:B2 I *D sky130_fd_sc_hd__o22a_1
*I *1202:X O *D sky130_fd_sc_hd__a211o_1
*CAP
1 *1203:B2 7.65287e-05
2 *1202:X 0.000102487
3 *178:8 0.000179016
4 *1203:B2 *1434:A0 5.50049e-05
5 *1203:B2 *488:26 0.000263738
6 *178:8 *309:62 0.00035701
7 *178:8 *465:8 0.000354778
8 *170:18 *1203:B2 8.56776e-05
*RES
1 *1202:X *178:8 42.7229 
2 *178:8 *1203:B2 41.0243 
*END

*D_NET *179 0.00326756
*CONN
*I *1204:A1 I *D sky130_fd_sc_hd__mux2_1
*I *1203:X O *D sky130_fd_sc_hd__o22a_1
*CAP
1 *1204:A1 0
2 *1203:X 0.000361214
3 *179:12 0.00067035
4 *179:8 0.00103156
5 *179:12 *1343:A1 2.49733e-05
6 *179:12 *1487:CLK 0
7 *179:12 *266:10 0.000293785
8 *179:12 *351:31 8.44611e-05
9 *179:12 *477:36 0.00016228
10 *1206:A2 *179:12 0
11 *88:8 *179:12 0.000110922
12 *158:68 *179:12 0
13 *167:142 *179:12 0
14 *170:18 *179:8 0.000528014
*RES
1 *1203:X *179:8 43.8621 
2 *179:8 *179:12 28.1743 
3 *179:12 *1204:A1 23 
*END

*D_NET *180 0.000201417
*CONN
*I *1205:A I *D sky130_fd_sc_hd__clkbuf_1
*I *1204:X O *D sky130_fd_sc_hd__mux2_1
*CAP
1 *1205:A 5.58134e-05
2 *1204:X 5.58134e-05
3 *1205:A *413:22 8.97899e-05
*RES
1 *1204:X *1205:A 47.4707 
*END

*D_NET *181 0.00147828
*CONN
*I *1207:B1 I *D sky130_fd_sc_hd__a21o_1
*I *1206:X O *D sky130_fd_sc_hd__a22o_1
*CAP
1 *1207:B1 0
2 *1206:X 0.000576106
3 *181:10 0.000576106
4 *181:10 *252:10 2.51913e-05
5 *181:10 *331:105 0.000268596
6 *181:10 *331:114 3.2277e-05
*RES
1 *1206:X *181:10 46.5964 
2 *181:10 *1207:B1 38 
*END

*D_NET *182 0.000969967
*CONN
*I *1212:B1 I *D sky130_fd_sc_hd__o22a_1
*I *1207:X O *D sky130_fd_sc_hd__a21o_1
*CAP
1 *1212:B1 4.56607e-05
2 *1207:X 0.00024716
3 *182:10 0.000292821
4 *1212:B1 *1212:A1 0.000181098
5 *1212:B1 *1341:S 3.88617e-05
6 *1212:B1 *186:14 5.67058e-05
7 *182:10 *1302:S 0.00010766
8 *182:10 *187:8 0
9 *182:10 *483:8 0
*RES
1 *1207:X *182:10 41.6043 
2 *182:10 *1212:B1 40.0714 
*END

*D_NET *183 0.000882742
*CONN
*I *1209:A2 I *D sky130_fd_sc_hd__a21oi_1
*I *1208:Y O *D sky130_fd_sc_hd__inv_2
*CAP
1 *1209:A2 1.15469e-05
2 *1208:Y 0.000231903
3 *183:10 0.00024345
4 *1209:A2 *332:96 5.56279e-05
5 *183:10 *299:129 2.81066e-05
6 *183:10 *332:96 8.71559e-05
7 *1209:A1 *1209:A2 5.81185e-05
8 *64:10 *183:10 3.5781e-06
9 *160:113 *183:10 0.000163256
*RES
1 *1208:Y *183:10 41.8321 
2 *183:10 *1209:A2 38.6214 
*END

*D_NET *184 0.000239157
*CONN
*I *1211:B1 I *D sky130_fd_sc_hd__a211o_1
*I *1209:Y O *D sky130_fd_sc_hd__a21oi_1
*CAP
1 *1211:B1 8.41424e-05
2 *1209:Y 8.41424e-05
3 *1211:B1 *1432:A0 3.28357e-06
4 *1211:B1 *185:18 4.0578e-05
5 *1211:B1 *332:96 1.11037e-05
6 *1209:B1 *1211:B1 1.59071e-05
*RES
1 *1209:Y *1211:B1 48.0921 
*END

*D_NET *185 0.00446398
*CONN
*I *1211:C1 I *D sky130_fd_sc_hd__a211o_1
*I *1210:X O *D sky130_fd_sc_hd__a22o_1
*CAP
1 *1211:C1 0
2 *1210:X 0.00122603
3 *185:18 0.000297822
4 *185:6 0.00152385
5 *185:6 *1210:B2 4.03352e-05
6 *185:6 *1526:CLK 8.20526e-05
7 *185:6 *1548:A 0.000568865
8 *185:6 *326:10 5.56356e-05
9 *185:18 *1432:A0 4.66676e-05
10 *185:18 *186:8 9.66585e-05
11 *185:18 *309:56 6.12479e-05
12 *185:18 *383:23 2.91427e-05
13 *185:18 *477:83 1.24376e-05
14 *185:18 *477:100 5.55743e-06
15 *1209:B1 *185:18 6.68705e-05
16 *1211:A2 *185:18 0.000141355
17 *1211:B1 *185:18 4.0578e-05
18 *1526:D *185:6 3.11218e-05
19 *172:66 *185:18 0.000137744
*RES
1 *1210:X *185:6 39.82 
2 *185:6 *185:18 37.2086 
3 *185:18 *1211:C1 23 
*END

*D_NET *186 0.00323053
*CONN
*I *1212:B2 I *D sky130_fd_sc_hd__o22a_1
*I *1211:X O *D sky130_fd_sc_hd__a211o_1
*CAP
1 *1212:B2 0
2 *1211:X 8.13268e-05
3 *186:14 0.000766787
4 *186:8 0.000848114
5 *186:14 *1341:S 5.50106e-05
6 *186:14 *1519:CLK 0
7 *186:14 *265:10 0
8 *186:14 *307:8 0
9 *186:14 *331:133 0
10 *186:14 *344:21 6.68793e-05
11 *186:14 *486:8 0
12 *1198:A1 *186:14 0
13 *1198:B1 *186:14 0.000106986
14 *1212:A2 *186:14 0.000428682
15 *1212:B1 *186:14 5.67058e-05
16 *166:78 *186:14 0.000616631
17 *166:106 *186:14 0.000106754
18 *185:18 *186:8 9.66585e-05
*RES
1 *1211:X *186:8 39.0979 
2 *186:8 *186:14 31.965 
3 *186:14 *1212:B2 23 
*END

*D_NET *187 0.00144219
*CONN
*I *1213:A1 I *D sky130_fd_sc_hd__mux2_1
*I *1212:X O *D sky130_fd_sc_hd__o22a_1
*CAP
1 *1213:A1 0.000385081
2 *1212:X 7.74954e-05
3 *187:8 0.000462576
4 *1213:A1 *1302:S 4.93812e-05
5 *1213:A1 *492:6 0.00044716
6 *187:8 *477:22 2.04934e-05
7 *182:10 *187:8 0
*RES
1 *1212:X *187:8 39.2014 
2 *187:8 *1213:A1 43.8621 
*END

*D_NET *188 0.00169791
*CONN
*I *1214:A I *D sky130_fd_sc_hd__clkbuf_1
*I *1213:X O *D sky130_fd_sc_hd__mux2_1
*CAP
1 *1214:A 4.70456e-05
2 *1213:X 0.000414611
3 *188:10 0.000461656
4 *1214:A *1316:A 0.000231166
5 *1214:A *413:22 0.000230051
6 *188:10 *1302:S 3.7122e-06
7 *188:10 *331:129 3.06803e-05
8 *188:10 *488:16 0.000272351
9 *188:10 *492:6 6.63793e-06
*RES
1 *1213:X *188:10 44.2971 
2 *188:10 *1214:A 40.5271 
*END

*D_NET *189 0.00207734
*CONN
*I *1216:B1 I *D sky130_fd_sc_hd__a21o_1
*I *1215:X O *D sky130_fd_sc_hd__a22o_1
*CAP
1 *1216:B1 0.000162129
2 *1215:X 0.00028343
3 *189:10 0.000445559
4 *1216:B1 *228:14 1.12863e-05
5 *1216:B1 *398:12 2.80201e-05
6 *1216:B1 *466:35 1.50365e-05
7 *189:10 *227:10 0.000778871
8 *189:10 *245:121 5.50049e-05
9 *189:10 *251:10 1.32939e-05
10 *189:10 *335:99 0.000248732
11 *1465:D *189:10 3.59733e-05
*RES
1 *1215:X *189:10 47.57 
2 *189:10 *1216:B1 40.61 
*END

*D_NET *190 0.00195493
*CONN
*I *1221:B1 I *D sky130_fd_sc_hd__o22a_1
*I *1216:X O *D sky130_fd_sc_hd__a21o_1
*CAP
1 *1221:B1 0
2 *1216:X 0.000868871
3 *190:8 0.000868871
4 *190:8 *1221:A1 5.63717e-05
5 *190:8 *1221:B2 1.84831e-05
6 *190:8 *335:85 8.17934e-05
7 *1459:D *190:8 4.9054e-06
8 *158:170 *190:8 5.56356e-05
*RES
1 *1216:X *190:8 34.3514 
2 *190:8 *1221:B1 23 
*END

*D_NET *191 0.0020858
*CONN
*I *1218:A2 I *D sky130_fd_sc_hd__a21oi_1
*I *1217:Y O *D sky130_fd_sc_hd__inv_2
*CAP
1 *1218:A2 0.000196885
2 *1217:Y 0.000124004
3 *191:18 0.000642608
4 *191:8 0.000569727
5 *1218:A2 *1412:S 7.87243e-05
6 *1218:A2 *1430:A0 5.50106e-05
7 *1218:A2 *466:43 4.79688e-05
8 *191:8 *305:10 0
9 *191:8 *374:12 0.000112455
10 *191:18 *299:109 6.32263e-05
11 *191:18 *466:35 0.0001008
12 *191:18 *506:14 3.81679e-05
13 *1517:D *191:18 5.62266e-05
14 *118:8 *191:8 0
*RES
1 *1217:Y *191:8 39.9057 
2 *191:8 *191:18 37.4157 
3 *191:18 *1218:A2 41.9979 
*END

*D_NET *192 0.00139018
*CONN
*I *1220:B1 I *D sky130_fd_sc_hd__a211o_1
*I *1218:Y O *D sky130_fd_sc_hd__a21oi_1
*CAP
1 *1220:B1 0
2 *1218:Y 0.000282347
3 *192:12 0.000282347
4 *192:12 *193:10 0.000163361
5 *192:12 *309:54 0.000446073
6 *192:12 *309:56 1.14452e-05
7 *192:12 *466:43 6.78519e-05
8 *172:66 *192:12 0.000136755
*RES
1 *1218:Y *192:12 45.7264 
2 *192:12 *1220:B1 38 
*END

*D_NET *193 0.00191706
*CONN
*I *1220:C1 I *D sky130_fd_sc_hd__a211o_1
*I *1219:X O *D sky130_fd_sc_hd__a22o_1
*CAP
1 *1220:C1 0
2 *1219:X 0.000609291
3 *193:10 0.000609291
4 *193:10 *332:74 0.000187129
5 *193:10 *332:78 0.000184624
6 *172:66 *193:10 0.000163361
7 *192:12 *193:10 0.000163361
*RES
1 *1219:X *193:10 48.0257 
2 *193:10 *1220:C1 38 
*END

*D_NET *194 0.0019277
*CONN
*I *1221:B2 I *D sky130_fd_sc_hd__o22a_1
*I *1220:X O *D sky130_fd_sc_hd__a211o_1
*CAP
1 *1221:B2 1.60573e-05
2 *1220:X 0.000607682
3 *194:16 0.000623739
4 *1221:B2 *335:85 5.82853e-05
5 *194:16 *1393:A1 0.000185434
6 *194:16 *251:10 0.000129299
7 *194:16 *288:121 0
8 *194:16 *335:99 1.91454e-05
9 *194:16 *350:27 0
10 *194:16 *366:27 9.10094e-05
11 *194:16 *504:8 0
12 *165:90 *194:16 0
13 *167:101 *194:16 7.17358e-06
14 *172:53 *194:16 0.000157045
15 *172:66 *194:16 1.4345e-05
16 *190:8 *1221:B2 1.84831e-05
*RES
1 *1220:X *194:16 49.2064 
2 *194:16 *1221:B2 38.6214 
*END

*D_NET *195 0.0123569
*CONN
*I *1222:A1 I *D sky130_fd_sc_hd__mux2_1
*I *1221:X O *D sky130_fd_sc_hd__o22a_1
*CAP
1 *1222:A1 0
2 *1221:X 0.000102743
3 *195:18 0.00563153
4 *195:10 0.00573427
5 *195:10 *288:121 1.0092e-05
6 *195:18 *254:46 7.63251e-06
7 *195:18 *438:92 0.000119213
8 *158:135 *195:18 0.000128952
9 *158:158 *195:18 0.000385793
10 *163:24 *195:18 5.75756e-06
11 *167:65 *195:18 0
12 *167:101 *195:10 0.000160873
13 *175:74 *195:10 7.0013e-05
*RES
1 *1221:X *195:10 48.4339 
2 *195:10 *195:18 35.2353 
3 *195:18 *1222:A1 23 
*END

*D_NET *196 0.000750629
*CONN
*I *1223:A I *D sky130_fd_sc_hd__clkbuf_1
*I *1222:X O *D sky130_fd_sc_hd__mux2_1
*CAP
1 *1223:A 0
2 *1222:X 0.000147248
3 *196:8 0.000147248
4 *196:8 *1492:CLK 0
5 *196:8 *254:46 0
6 *196:8 *254:61 0
7 *196:8 *430:29 0.000387279
8 *44:8 *196:8 6.88552e-05
*RES
1 *1222:X *196:8 43.075 
2 *196:8 *1223:A 38 
*END

*D_NET *197 0.000745491
*CONN
*I *1225:B1 I *D sky130_fd_sc_hd__a21o_1
*I *1224:X O *D sky130_fd_sc_hd__a22o_1
*CAP
1 *1225:B1 1.11013e-05
2 *1224:X 0.000219946
3 *197:8 0.000231047
4 *1225:B1 *250:10 5.82853e-05
5 *142:128 *197:8 0
6 *158:121 *1225:B1 5.5792e-05
7 *167:38 *197:8 0.000169319
*RES
1 *1224:X *197:8 42.7229 
2 *197:8 *1225:B1 38.6214 
*END

*D_NET *198 0.00114322
*CONN
*I *1230:B1 I *D sky130_fd_sc_hd__o22a_1
*I *1225:X O *D sky130_fd_sc_hd__a21o_1
*CAP
1 *1230:B1 0
2 *1225:X 0.000204478
3 *198:6 0.000204478
4 *198:6 *1298:A1 2.50118e-05
5 *198:6 *202:22 0.00022308
6 *198:6 *203:6 0.000117119
7 *198:6 *245:56 3.28708e-05
8 *198:6 *250:10 0.000102971
9 *158:121 *198:6 0.000233211
*RES
1 *1225:X *198:6 29.3386 
2 *198:6 *1230:B1 23 
*END

*D_NET *199 0.00277307
*CONN
*I *1227:A2 I *D sky130_fd_sc_hd__a21oi_1
*I *1226:Y O *D sky130_fd_sc_hd__inv_2
*CAP
1 *1227:A2 0.000442749
2 *1226:Y 0.000423402
3 *199:10 0.000866151
4 *1227:A2 *202:22 9.88678e-05
5 *1227:A2 *422:30 0.000114074
6 *1227:A2 *425:47 0.000174324
7 *199:10 *223:10 0.00031002
8 *1524:D *199:10 0.000102732
9 *142:128 *1227:A2 0
10 *142:132 *1227:A2 0.000240753
11 *165:171 *199:10 0
*RES
1 *1226:Y *199:10 44.3593 
2 *199:10 *1227:A2 47.135 
*END

*D_NET *200 0.00104276
*CONN
*I *1229:B1 I *D sky130_fd_sc_hd__a211o_1
*I *1227:Y O *D sky130_fd_sc_hd__a21oi_1
*CAP
1 *1229:B1 0.000225818
2 *1227:Y 0.000130744
3 *200:8 0.000356561
4 *1229:B1 *1229:A1 4.80349e-05
5 *1229:B1 *1229:C1 9.67842e-05
6 *1229:B1 *1601:A 4.96303e-05
7 *200:8 *201:10 2.42752e-05
8 *165:179 *200:8 0.000110913
*RES
1 *1227:Y *200:8 40.61 
2 *200:8 *1229:B1 41.9979 
*END

*D_NET *201 0.00120292
*CONN
*I *1229:C1 I *D sky130_fd_sc_hd__a211o_1
*I *1228:X O *D sky130_fd_sc_hd__a22o_1
*CAP
1 *1229:C1 2.42832e-05
2 *1228:X 0.000285549
3 *201:10 0.000309833
4 *1229:C1 *1229:A1 9.84851e-05
5 *201:10 *1556:A 9.09342e-06
6 *201:10 *455:78 0.00017044
7 *1228:A2 *201:10 0.000102538
8 *1229:B1 *1229:C1 9.67842e-05
9 *165:179 *201:10 8.16356e-05
10 *200:8 *201:10 2.42752e-05
*RES
1 *1228:X *201:10 44.2971 
2 *201:10 *1229:C1 39.0979 
*END

*D_NET *202 0.00321354
*CONN
*I *1230:B2 I *D sky130_fd_sc_hd__o22a_1
*I *1229:X O *D sky130_fd_sc_hd__a211o_1
*CAP
1 *1230:B2 0
2 *1229:X 0
3 *202:22 0.000863567
4 *202:6 0.000863567
5 *202:22 *1298:A1 0.000261458
6 *202:22 *1543:A 0.000177099
7 *202:22 *341:18 1.00493e-05
8 *202:22 *425:47 0
9 *202:22 *454:10 8.57485e-05
10 *1227:A2 *202:22 9.88678e-05
11 *85:10 *202:22 0.000113153
12 *142:128 *202:22 0.000494897
13 *158:121 *202:22 2.20494e-05
14 *198:6 *202:22 0.00022308
*RES
1 *1229:X *202:6 38 
2 *202:6 *202:22 36.025 
3 *202:22 *1230:B2 23 
*END

*D_NET *203 0.00471064
*CONN
*I *1231:A1 I *D sky130_fd_sc_hd__mux2_1
*I *1230:X O *D sky130_fd_sc_hd__o22a_1
*CAP
1 *1231:A1 0
2 *1230:X 0.00127526
3 *203:12 0.000559826
4 *203:6 0.00183509
5 *203:6 *245:56 1.6318e-05
6 *203:6 *250:10 0.000240504
7 *203:6 *333:16 0.000178409
8 *203:12 *1355:S 1.68817e-05
9 *203:12 *1391:S 0
10 *203:12 *455:10 0
11 *203:12 *455:33 0
12 *1508:D *203:6 1.48827e-05
13 *109:10 *203:12 0.000132342
14 *163:45 *203:12 0.000323999
15 *198:6 *203:6 0.000117119
*RES
1 *1230:X *203:6 40.7729 
2 *203:6 *203:12 42.1179 
3 *203:12 *1231:A1 23 
*END

*D_NET *204 0.00130478
*CONN
*I *1232:A I *D sky130_fd_sc_hd__clkbuf_1
*I *1231:X O *D sky130_fd_sc_hd__mux2_1
*CAP
1 *1232:A 0.000208162
2 *1231:X 0.000201455
3 *204:10 0.000409617
4 *1232:A *1313:A 9.67842e-05
5 *1232:A *1640:A 7.27085e-05
6 *1232:A *254:74 0.000185434
7 *204:10 *420:10 7.96027e-06
8 *43:10 *1232:A 8.1796e-05
9 *43:10 *204:10 4.08641e-05
10 *163:45 *204:10 0
*RES
1 *1231:X *204:10 40.7757 
2 *204:10 *1232:A 43.7793 
*END

*D_NET *205 0.00306561
*CONN
*I *1234:B1 I *D sky130_fd_sc_hd__a21o_1
*I *1233:X O *D sky130_fd_sc_hd__a22o_1
*CAP
1 *1234:B1 0.000208728
2 *1233:X 0.000423842
3 *205:12 0.00063257
4 *1234:B1 *1234:A1 2.73207e-05
5 *1234:B1 *219:24 2.07086e-05
6 *1234:B1 *444:66 0.000416171
7 *1234:B1 *448:8 4.08641e-05
8 *205:12 *1296:A0 0.000305437
9 *205:12 *245:20 0.000265477
10 *205:12 *245:33 0.000137651
11 *205:12 *249:10 5.67058e-05
12 *205:12 *330:38 6.51763e-05
13 *205:12 *364:8 1.37232e-05
14 *205:12 *444:46 0.000167268
15 *84:10 *1234:B1 0
16 *158:200 *1234:B1 0.000276214
17 *165:165 *1234:B1 7.75329e-06
*RES
1 *1233:X *205:12 48.6679 
2 *205:12 *1234:B1 44.4836 
*END

*D_NET *206 0.00234546
*CONN
*I *1239:B1 I *D sky130_fd_sc_hd__o22a_1
*I *1234:X O *D sky130_fd_sc_hd__a21o_1
*CAP
1 *1239:B1 0.000261249
2 *1234:X 0.000302746
3 *206:10 0.000563995
4 *1239:B1 *1239:A1 9.45591e-05
5 *1239:B1 *1590:A 5.67058e-05
6 *1239:B1 *258:48 0.000140259
7 *1239:B1 *335:27 0.00014196
8 *206:10 *1335:A0 7.53384e-06
9 *206:10 *219:12 0
10 *206:10 *219:24 0.000317433
11 *206:10 *258:48 1.7992e-05
12 *206:10 *258:56 0
13 *206:10 *443:8 0.000323822
14 *206:10 *444:66 0.000117208
*RES
1 *1234:X *206:10 46.9071 
2 *206:10 *1239:B1 43.8829 
*END

*D_NET *207 0.00250342
*CONN
*I *1236:A2 I *D sky130_fd_sc_hd__a21oi_1
*I *1235:Y O *D sky130_fd_sc_hd__inv_2
*CAP
1 *1236:A2 0.000191967
2 *1235:Y 0.000334199
3 *207:12 0.000526166
4 *1236:A2 *1426:A0 0.000312348
5 *1236:A2 *1426:A1 0.000136743
6 *1236:A2 *299:14 0.000136841
7 *207:12 *1371:A1 0.000179624
8 *207:12 *1603:A 0.000102971
9 *207:12 *299:22 0
10 *207:12 *309:10 0.000140958
11 *207:12 *309:23 2.55642e-05
12 *207:12 *444:83 0
13 *207:12 *505:10 0.000233211
14 *160:70 *1236:A2 0.000182826
*RES
1 *1235:Y *207:12 46.6171 
2 *207:12 *1236:A2 43.8621 
*END

*D_NET *208 0.00147331
*CONN
*I *1238:B1 I *D sky130_fd_sc_hd__a211o_1
*I *1236:Y O *D sky130_fd_sc_hd__a21oi_1
*CAP
1 *1238:B1 2.77218e-05
2 *1236:Y 0.000234641
3 *208:12 0.000262363
4 *1238:B1 *210:12 5.3304e-05
5 *1238:B1 *425:18 2.64616e-05
6 *208:12 *380:12 0.000192096
7 *208:12 *434:12 0.000457425
8 *1236:B1 *208:12 6.67149e-05
9 *160:70 *208:12 1.14154e-05
10 *160:93 *208:12 5.14746e-06
11 *172:26 *208:12 0.000136019
*RES
1 *1236:Y *208:12 45.6021 
2 *208:12 *1238:B1 38.6214 
*END

*D_NET *209 0.00247199
*CONN
*I *1238:C1 I *D sky130_fd_sc_hd__a211o_1
*I *1237:X O *D sky130_fd_sc_hd__a22o_1
*CAP
1 *1238:C1 0
2 *1237:X 8.41393e-05
3 *209:12 0.000400215
4 *209:8 0.000484354
5 *209:12 *328:10 1.01436e-05
6 *209:12 *434:12 0.00100535
7 *209:12 *487:8 8.85189e-05
8 *166:10 *209:12 0.000252396
9 *172:22 *209:8 9.66585e-05
10 *176:34 *209:12 5.02106e-05
*RES
1 *1237:X *209:8 39.0979 
2 *209:8 *209:12 28.5264 
3 *209:12 *1238:C1 23 
*END

*D_NET *210 0.00182269
*CONN
*I *1239:B2 I *D sky130_fd_sc_hd__o22a_1
*I *1238:X O *D sky130_fd_sc_hd__a211o_1
*CAP
1 *1239:B2 0
2 *1238:X 0.000627349
3 *210:12 0.000627349
4 *210:12 *1523:CLK 0
5 *210:12 *309:23 0.000140958
6 *210:12 *328:10 9.67842e-05
7 *210:12 *425:18 0.000178456
8 *1238:B1 *210:12 5.3304e-05
9 *172:53 *210:12 9.84851e-05
*RES
1 *1238:X *210:12 49.1236 
2 *210:12 *1239:B2 38 
*END

*D_NET *211 0.00358147
*CONN
*I *1240:A1 I *D sky130_fd_sc_hd__mux2_1
*I *1239:X O *D sky130_fd_sc_hd__o22a_1
*CAP
1 *1240:A1 0
2 *1239:X 3.83793e-05
3 *211:16 0.00128869
4 *211:8 0.00132707
5 *211:8 *335:27 5.67058e-05
6 *211:16 *1240:A0 0.00010018
7 *211:16 *1242:B2 1.88491e-05
8 *211:16 *1577:A 0
9 *211:16 *288:98 0.000164392
10 *211:16 *299:22 0
11 *211:16 *299:80 0
12 *211:16 *309:23 3.75401e-06
13 *211:16 *309:89 0
14 *211:16 *335:40 0.000153395
15 *211:16 *335:63 0.000142113
16 *211:16 *363:8 8.52094e-06
17 *211:16 *363:24 0
18 *211:16 *433:63 0.000199006
19 *42:8 *211:16 4.77164e-06
20 *158:135 *211:16 0
21 *163:80 *211:16 7.56417e-05
*RES
1 *1239:X *211:8 38.6214 
2 *211:8 *211:16 36.5843 
3 *211:16 *1240:A1 23 
*END

*D_NET *212 0.00060053
*CONN
*I *1241:A I *D sky130_fd_sc_hd__clkbuf_1
*I *1240:X O *D sky130_fd_sc_hd__mux2_1
*CAP
1 *1241:A 0
2 *1240:X 0.000188135
3 *212:10 0.000188135
4 *212:10 *1467:CLK 3.98496e-05
5 *212:10 *1521:CLK 2.4754e-05
6 *212:10 *226:14 1.26859e-05
7 *212:10 *254:82 5.14746e-06
8 *212:10 *299:34 5.3304e-05
9 *122:8 *212:10 8.85189e-05
*RES
1 *1240:X *212:10 41.48 
2 *212:10 *1241:A 38 
*END

*D_NET *213 0.000514213
*CONN
*I *1243:B1 I *D sky130_fd_sc_hd__a21o_1
*I *1242:X O *D sky130_fd_sc_hd__a22o_1
*CAP
1 *1243:B1 0
2 *1242:X 0.00015516
3 *213:10 0.00015516
4 *213:10 *328:135 6.09929e-05
5 *213:10 *438:92 5.5792e-05
6 *1242:A2 *213:10 2.02872e-05
7 *1248:A2 *213:10 5.8752e-05
8 *167:84 *213:10 8.06804e-06
*RES
1 *1242:X *213:10 40.4236 
2 *213:10 *1243:B1 38 
*END

*D_NET *214 0.000613856
*CONN
*I *1248:B1 I *D sky130_fd_sc_hd__o22a_1
*I *1243:X O *D sky130_fd_sc_hd__a21o_1
*CAP
1 *1248:B1 0
2 *1243:X 0.000161334
3 *214:10 0.000161334
4 *214:10 *261:10 0
5 *214:10 *278:57 0.000165593
6 *1248:A2 *214:10 2.5415e-05
7 *167:65 *214:10 0.00010018
*RES
1 *1243:X *214:10 41.3557 
2 *214:10 *1248:B1 38 
*END

*D_NET *215 0.000421365
*CONN
*I *1245:A2 I *D sky130_fd_sc_hd__a21oi_1
*I *1244:Y O *D sky130_fd_sc_hd__inv_2
*CAP
1 *1245:A2 7.80002e-05
2 *1244:Y 7.30856e-05
3 *215:8 0.000151086
4 *1245:A2 *299:80 0
5 *215:8 *319:84 0
6 *1245:A1 *215:8 8.10876e-05
7 *1245:B1 *1245:A2 3.81057e-05
*RES
1 *1244:Y *215:8 39.2014 
2 *215:8 *1245:A2 39.6157 
*END

*D_NET *216 0.0019262
*CONN
*I *1247:B1 I *D sky130_fd_sc_hd__a211o_1
*I *1245:Y O *D sky130_fd_sc_hd__a21oi_1
*CAP
1 *1247:B1 0
2 *1245:Y 0.000757672
3 *216:16 0.000757672
4 *216:16 *1425:A 6.34697e-05
5 *216:16 *217:12 1.5922e-05
6 *216:16 *299:80 7.03234e-05
7 *216:16 *299:97 2.30292e-05
8 *216:16 *339:31 0.00023274
9 *1245:B1 *216:16 5.37348e-06
*RES
1 *1245:Y *216:16 35.4079 
2 *216:16 *1247:B1 23 
*END

*D_NET *217 0.00292061
*CONN
*I *1247:C1 I *D sky130_fd_sc_hd__a211o_1
*I *1246:X O *D sky130_fd_sc_hd__a22o_1
*CAP
1 *1247:C1 0
2 *1246:X 0
3 *217:12 0.000683375
4 *217:6 0.000683375
5 *217:12 *312:8 3.81457e-05
6 *217:12 *433:14 0.000217716
7 *217:12 *433:16 0.000110258
8 *217:12 *433:18 0.000670752
9 *217:12 *433:20 0.000206691
10 *217:12 *452:8 0.000294374
11 *115:10 *217:12 0
12 *123:14 *217:12 0
13 *216:16 *217:12 1.5922e-05
*RES
1 *1246:X *217:6 38 
2 *217:6 *217:12 31.1882 
3 *217:12 *1247:C1 23 
*END

*D_NET *218 0.00134634
*CONN
*I *1248:B2 I *D sky130_fd_sc_hd__o22a_1
*I *1247:X O *D sky130_fd_sc_hd__a211o_1
*CAP
1 *1248:B2 0.000210304
2 *1247:X 0.000172605
3 *218:8 0.000382909
4 *1248:B2 *1248:A1 0.0001096
5 *1248:B2 *258:85 5.10686e-05
6 *218:8 *278:57 0
7 *218:8 *328:135 0.000133316
8 *218:8 *434:12 0.000286534
*RES
1 *1247:X *218:8 42.0186 
2 *218:8 *1248:B2 41.3764 
*END

*D_NET *219 0.0111063
*CONN
*I *1249:A1 I *D sky130_fd_sc_hd__mux2_1
*I *1248:X O *D sky130_fd_sc_hd__o22a_1
*CAP
1 *1249:A1 0
2 *1248:X 0.000400614
3 *219:24 0.00264123
4 *219:12 0.00336575
5 *219:8 0.00112514
6 *219:8 *1351:A0 2.63049e-05
7 *219:8 *268:124 0.000438468
8 *219:12 *226:14 0
9 *219:12 *258:48 0.000349386
10 *219:12 *299:22 0.00124478
11 *219:12 *438:69 6.53578e-05
12 *219:24 *1234:A1 7.13271e-05
13 *219:24 *1250:A 0
14 *219:24 *1311:A 1.46286e-05
15 *219:24 *1335:A0 1.76557e-05
16 *219:24 *1390:A 2.30292e-05
17 *219:24 *1457:CLK 0.000149822
18 *219:24 *258:40 1.73399e-05
19 *219:24 *288:68 9.91798e-05
20 *219:24 *288:76 5.70419e-05
21 *219:24 *396:8 0.000319358
22 *219:24 *444:31 3.17634e-05
23 *219:24 *444:46 4.2062e-05
24 *219:24 *444:66 1.3279e-05
25 *219:24 *444:81 1.68748e-05
26 *1234:B1 *219:24 2.07086e-05
27 *1249:S *219:24 1.14154e-05
28 *107:8 *219:12 4.41587e-05
29 *108:10 *219:24 1.12569e-05
30 *158:200 *219:24 6.48373e-05
31 *163:14 *219:24 7.87939e-05
32 *163:24 *219:24 2.73248e-05
33 *166:46 *219:12 0
34 *206:10 *219:12 0
35 *206:10 *219:24 0.000317433
*RES
1 *1248:X *219:8 43.8621 
2 *219:8 *219:12 33.1043 
3 *219:12 *219:24 38.4871 
4 *219:24 *1249:A1 23 
*END

*D_NET *220 0.000249722
*CONN
*I *1250:A I *D sky130_fd_sc_hd__clkbuf_1
*I *1249:X O *D sky130_fd_sc_hd__mux2_1
*CAP
1 *1250:A 0.000124861
2 *1249:X 0.000124861
3 *163:24 *1250:A 0
4 *219:24 *1250:A 0
*RES
1 *1249:X *1250:A 48.4236 
*END

*D_NET *221 0.00108476
*CONN
*I *1252:B1 I *D sky130_fd_sc_hd__a21o_1
*I *1251:X O *D sky130_fd_sc_hd__a22o_1
*CAP
1 *1252:B1 0.000286718
2 *1251:X 5.33129e-05
3 *221:8 0.00034003
4 *1252:B1 *422:66 0.00032244
5 *221:8 *242:14 4.11274e-05
6 *221:8 *438:23 4.11274e-05
*RES
1 *1251:X *221:8 39.2014 
2 *221:8 *1252:B1 43.4271 
*END

*D_NET *222 0.00262652
*CONN
*I *1257:B1 I *D sky130_fd_sc_hd__o22a_1
*I *1252:X O *D sky130_fd_sc_hd__a21o_1
*CAP
1 *1257:B1 0
2 *1252:X 0.000601767
3 *222:8 0.000601767
4 *222:8 *1257:A1 3.16799e-05
5 *222:8 *1292:S 0.000137651
6 *222:8 *1331:A0 7.44161e-06
7 *222:8 *1331:A1 0.000135547
8 *222:8 *258:56 0.000232734
9 *222:8 *422:54 2.25809e-05
10 *222:8 *422:66 0.00031495
11 *222:8 *437:106 0.000397767
12 *1257:A2 *222:8 0.000142632
*RES
1 *1252:X *222:8 37.8107 
2 *222:8 *1257:B1 23 
*END

*D_NET *223 0.00168504
*CONN
*I *1254:A2 I *D sky130_fd_sc_hd__a21oi_1
*I *1253:Y O *D sky130_fd_sc_hd__inv_2
*CAP
1 *1254:A2 0
2 *1253:Y 0.000490682
3 *223:10 0.000490682
4 *223:10 *1253:A 1.31512e-05
5 *223:10 *334:32 5.2621e-05
6 *223:10 *373:8 9.84794e-05
7 *223:10 *422:30 0.000113447
8 *1524:D *223:10 0.000102732
9 *165:171 *223:10 1.32314e-05
10 *199:10 *223:10 0.00031002
*RES
1 *1253:Y *223:10 33.7921 
2 *223:10 *1254:A2 23 
*END

*D_NET *224 0.00232099
*CONN
*I *1256:B1 I *D sky130_fd_sc_hd__a211o_1
*I *1254:Y O *D sky130_fd_sc_hd__a21oi_1
*CAP
1 *1256:B1 4.24639e-05
2 *1254:Y 0.000635071
3 *224:10 0.000677535
4 *224:10 *226:14 0
5 *224:10 *422:30 1.3523e-05
6 *224:10 *422:92 0.000273267
7 *224:10 *422:105 0.000652667
8 *172:110 *1256:B1 2.64616e-05
*RES
1 *1254:Y *224:10 48.5021 
2 *224:10 *1256:B1 38.6214 
*END

*D_NET *225 0.00151927
*CONN
*I *1256:C1 I *D sky130_fd_sc_hd__a211o_1
*I *1255:X O *D sky130_fd_sc_hd__a22o_1
*CAP
1 *1256:C1 0.00028884
2 *1255:X 0.000177782
3 *225:8 0.000466622
4 *225:8 *278:57 0.000169586
5 *225:8 *462:8 0
6 *172:110 *1256:C1 0.000354091
7 *175:86 *225:8 6.23469e-05
*RES
1 *1255:X *225:8 42.0186 
2 *225:8 *1256:C1 45.6643 
*END

*D_NET *226 0.00315143
*CONN
*I *1257:B2 I *D sky130_fd_sc_hd__o22a_1
*I *1256:X O *D sky130_fd_sc_hd__a211o_1
*CAP
1 *1257:B2 0
2 *1256:X 0
3 *226:14 0.0012592
4 *226:6 0.0012592
5 *226:14 *1257:A1 0.00021425
6 *226:14 *1549:A 0.000137754
7 *226:14 *258:60 0
8 *226:14 *258:85 0
9 *226:14 *271:8 2.5415e-05
10 *226:14 *299:22 0
11 *226:14 *299:34 4.82745e-05
12 *226:14 *309:105 0
13 *226:14 *336:12 0
14 *226:14 *378:10 0
15 *226:14 *438:69 0
16 *226:14 *461:10 0
17 *122:8 *226:14 3.62323e-05
18 *166:46 *226:14 0.000158414
19 *167:65 *226:14 0
20 *212:10 *226:14 1.26859e-05
21 *219:12 *226:14 0
22 *224:10 *226:14 0
*RES
1 *1256:X *226:6 38 
2 *226:6 *226:14 37.8686 
3 *226:14 *1257:B2 23 
*END

*D_NET *227 0.00850233
*CONN
*I *1258:A1 I *D sky130_fd_sc_hd__mux2_1
*I *1257:X O *D sky130_fd_sc_hd__o22a_1
*CAP
1 *1258:A1 0
2 *1257:X 0
3 *227:16 0.000124497
4 *227:10 0.00273601
5 *227:4 0.00261151
6 *227:10 *1394:A 0.000312662
7 *227:10 *251:10 2.81406e-06
8 *227:10 *335:8 9.84851e-05
9 *227:10 *335:99 6.82228e-06
10 *227:10 *366:27 7.52922e-05
11 *227:10 *438:104 0.000142465
12 *227:10 *466:18 1.56673e-05
13 *227:16 *254:113 0
14 *227:16 *466:35 0
15 *1257:A2 *227:10 5.50049e-05
16 *1465:D *227:10 9.23758e-05
17 *110:10 *227:10 0.00044648
18 *166:25 *227:10 0.000994123
19 *167:101 *227:10 9.24795e-06
20 *189:10 *227:10 0.000778871
*RES
1 *1257:X *227:4 23 
2 *227:4 *227:10 47.4771 
3 *227:10 *227:16 31.9057 
4 *227:16 *1258:A1 23 
*END

*D_NET *228 0.00115847
*CONN
*I *1259:A I *D sky130_fd_sc_hd__clkbuf_1
*I *1258:X O *D sky130_fd_sc_hd__mux2_1
*CAP
1 *1259:A 0
2 *1258:X 0.000449755
3 *228:14 0.000449755
4 *228:14 *398:12 2.52675e-05
5 *228:14 *466:35 0.000122337
6 *1216:B1 *228:14 1.12863e-05
7 *163:112 *228:14 0.000100069
*RES
1 *1258:X *228:14 44.0279 
2 *228:14 *1259:A 38 
*END

*D_NET *229 0.00347742
*CONN
*I *1261:B1 I *D sky130_fd_sc_hd__a21o_1
*I *1260:X O *D sky130_fd_sc_hd__a22o_1
*CAP
1 *1261:B1 0.000305989
2 *1260:X 0.000351285
3 *229:16 0.000657273
4 *1261:B1 *1261:A1 0.000305149
5 *1261:B1 *309:54 4.41158e-05
6 *1261:B1 *393:10 8.62876e-05
7 *229:16 *1290:S 1.12796e-05
8 *229:16 *245:102 0.000338601
9 *229:16 *245:121 0.000118516
10 *229:16 *345:20 5.69157e-05
11 *1261:A2 *1261:B1 4.3198e-05
12 *55:10 *1261:B1 0.000270173
13 *158:158 *1261:B1 0.000306338
14 *160:150 *1261:B1 0.000132825
15 *166:118 *229:16 0.000310612
16 *167:101 *229:16 0.000138859
*RES
1 *1260:X *229:16 48.2329 
2 *229:16 *1261:B1 47.0314 
*END

*D_NET *230 0.00089927
*CONN
*I *1266:B1 I *D sky130_fd_sc_hd__o22a_1
*I *1261:X O *D sky130_fd_sc_hd__a21o_1
*CAP
1 *1266:B1 6.81483e-05
2 *1261:X 0.000120322
3 *230:10 0.00018847
4 *1266:B1 *337:25 0.000180218
5 *230:10 *246:10 0.000136486
6 *230:10 *299:109 6.33511e-05
7 *158:158 *230:10 5.50049e-05
8 *163:86 *1266:B1 8.72697e-05
*RES
1 *1261:X *230:10 40.5271 
2 *230:10 *1266:B1 40.0507 
*END

*D_NET *231 0.00100753
*CONN
*I *1263:A2 I *D sky130_fd_sc_hd__a21oi_1
*I *1262:Y O *D sky130_fd_sc_hd__inv_2
*CAP
1 *1263:A2 0.000111456
2 *1262:Y 0.000168309
3 *231:8 0.000279766
4 *1263:A2 *1464:CLK 0
5 *1263:A2 *232:16 0
6 *1263:A2 *336:144 8.74118e-05
7 *231:8 *300:8 6.53342e-05
8 *231:8 *336:152 0.000113153
9 *231:8 *369:12 8.85189e-05
10 *231:8 *377:8 0
11 *231:8 *401:36 6.42079e-05
12 *160:150 *1263:A2 2.93747e-05
*RES
1 *1262:Y *231:8 42.3707 
2 *231:8 *1263:A2 40.9 
*END

*D_NET *232 0.00124294
*CONN
*I *1265:B1 I *D sky130_fd_sc_hd__a211o_1
*I *1263:Y O *D sky130_fd_sc_hd__a21oi_1
*CAP
1 *1265:B1 2.75317e-05
2 *1263:Y 0.000352776
3 *232:16 0.000380308
4 *1265:B1 *1265:A1 1.14154e-05
5 *1265:B1 *1265:C1 3.81946e-05
6 *232:16 *310:10 8.62073e-06
7 *232:16 *336:144 0.000137625
8 *232:16 *377:8 0
9 *232:16 *479:8 0
10 *1263:A2 *232:16 0
11 *1263:B1 *232:16 9.84851e-05
12 *1265:A2 *1265:B1 4.5475e-05
13 *160:154 *232:16 0.000142513
*RES
1 *1263:Y *232:16 46.5343 
2 *232:16 *1265:B1 39.1186 
*END

*D_NET *233 0.000805763
*CONN
*I *1265:C1 I *D sky130_fd_sc_hd__a211o_1
*I *1264:X O *D sky130_fd_sc_hd__a22o_1
*CAP
1 *1265:C1 0.000135864
2 *1264:X 0.000226082
3 *233:8 0.000361946
4 *1265:C1 *1265:A1 2.29519e-05
5 *1265:A2 *1265:C1 2.07242e-05
6 *1265:B1 *1265:C1 3.81946e-05
7 *175:74 *233:8 0
*RES
1 *1264:X *233:8 42.0186 
2 *233:8 *1265:C1 40.4236 
*END

*D_NET *234 0.00161012
*CONN
*I *1266:B2 I *D sky130_fd_sc_hd__o22a_1
*I *1265:X O *D sky130_fd_sc_hd__a211o_1
*CAP
1 *1266:B2 0
2 *1265:X 0.000594493
3 *234:10 0.000594493
4 *234:10 *1265:A1 5.47808e-05
5 *234:10 *1576:A 6.51763e-05
6 *234:10 *300:8 6.6869e-05
7 *234:10 *309:54 5.75941e-05
8 *234:10 *377:8 0
9 *234:10 *401:36 0
10 *234:10 *401:44 0
11 *234:10 *479:8 0
12 *1263:B1 *234:10 0
13 *160:150 *234:10 0.00017671
14 *165:90 *234:10 0
*RES
1 *1265:X *234:10 49.7243 
2 *234:10 *1266:B2 38 
*END

*D_NET *235 0.00197162
*CONN
*I *1267:A1 I *D sky130_fd_sc_hd__mux2_1
*I *1266:X O *D sky130_fd_sc_hd__o22a_1
*CAP
1 *1267:A1 0
2 *1266:X 0.000558352
3 *235:10 0.000558352
4 *235:10 *337:25 2.16575e-05
5 *235:10 *410:10 0.000136791
6 *163:86 *235:10 0.000405895
7 *163:125 *235:10 0.000290572
*RES
1 *1266:X *235:10 47.6736 
2 *235:10 *1267:A1 38 
*END

*D_NET *236 0.000900496
*CONN
*I *1268:A I *D sky130_fd_sc_hd__clkbuf_1
*I *1267:X O *D sky130_fd_sc_hd__mux2_1
*CAP
1 *1268:A 0
2 *1267:X 0.000333981
3 *236:8 0.000333981
4 *236:8 *431:16 0
5 *39:8 *236:8 5.80963e-05
6 *65:8 *236:8 0.000174438
*RES
1 *1267:X *236:8 45.54 
2 *236:8 *1268:A 38 
*END

*D_NET *237 9.50084e-05
*CONN
*I *1274:A I *D sky130_fd_sc_hd__dlymetal6s2s_1
*I *1273:X O *D sky130_fd_sc_hd__or2_1
*CAP
1 *1274:A 1.91513e-05
2 *1273:X 1.91513e-05
3 *1274:A *435:50 5.67058e-05
*RES
1 *1273:X *1274:A 46.6214 
*END

*D_NET *238 0.0100275
*CONN
*I *1281:A2 I *D sky130_fd_sc_hd__o21a_1
*I *1276:A I *D sky130_fd_sc_hd__inv_2
*I *1286:B I *D sky130_fd_sc_hd__and3b_1
*I *1275:Y O *D sky130_fd_sc_hd__xnor2_2
*CAP
1 *1281:A2 0
2 *1276:A 0
3 *1286:B 0.000307003
4 *1275:Y 0.000373534
5 *238:46 0.000848006
6 *238:35 0.000780107
7 *238:16 0.00108711
8 *238:14 0.0013707
9 *238:10 0.00259224
10 *1286:B *243:8 1.01436e-05
11 *1286:B *418:14 0
12 *1286:B *430:20 0
13 *1286:B *437:31 6.62536e-05
14 *238:10 *1538:A 0
15 *238:14 *244:83 0.000100069
16 *238:14 *244:100 0.000742295
17 *238:35 *418:14 0
18 *238:35 *430:20 0
19 *238:35 *430:29 0
20 *238:46 *1538:A 0
21 *238:46 *328:113 0
22 *238:46 *330:10 0
23 *1156:A *238:10 0.000162803
24 *1156:A *238:46 9.28078e-06
25 *1200:A_N *238:46 2.58979e-05
26 *1275:B *238:10 2.93845e-05
27 *1280:B *238:46 4.52447e-05
28 *49:10 *238:14 3.22051e-05
29 *75:10 *238:35 3.21239e-05
30 *138:23 *238:14 5.41288e-05
31 *138:23 *238:46 9.74132e-05
32 *139:29 *238:46 0.000138727
33 *139:54 *238:46 3.82852e-05
34 *142:40 *238:46 0
35 *153:22 *238:46 1.058e-05
36 *154:10 *238:10 0
37 *157:86 *238:46 1.37184e-05
38 *160:39 *238:46 0.000135037
39 *163:173 *238:14 0.000418643
40 *165:38 *238:46 0.000390306
41 *167:124 *238:10 0.000116233
*RES
1 *1275:Y *238:10 44.2143 
2 *238:10 *238:14 41.825 
3 *238:14 *238:16 15 
4 *238:16 *1286:B 43.8829 
5 *238:16 *238:35 29.2307 
6 *238:35 *1276:A 23 
7 *238:10 *238:46 29.7486 
8 *238:46 *1281:A2 23 
*END

*D_NET *239 0.000383596
*CONN
*I *1278:B I *D sky130_fd_sc_hd__or2_1
*I *1277:X O *D sky130_fd_sc_hd__and2_1
*CAP
1 *1278:B 5.68117e-05
2 *1277:X 4.92713e-05
3 *239:8 0.000106083
4 *1278:B *425:55 5.50106e-05
5 *239:8 *425:63 2.79004e-05
6 *239:8 *437:122 8.85189e-05
*RES
1 *1277:X *239:8 39.2014 
2 *239:8 *1278:B 39.1186 
*END

*D_NET *240 0.000346505
*CONN
*I *1279:A I *D sky130_fd_sc_hd__clkbuf_1
*I *1278:X O *D sky130_fd_sc_hd__or2_1
*CAP
1 *1279:A 0.000173253
2 *1278:X 0.000173253
*RES
1 *1278:X *1279:A 48.5271 
*END

*D_NET *241 0.00284962
*CONN
*I *1281:A1 I *D sky130_fd_sc_hd__o21a_1
*I *1285:B1 I *D sky130_fd_sc_hd__a21oi_2
*I *1280:Y O *D sky130_fd_sc_hd__nor3_1
*CAP
1 *1281:A1 0.00038732
2 *1285:B1 5.14505e-05
3 *1280:Y 0.000243772
4 *241:10 0.000682543
5 *1281:A1 *330:50 8.653e-05
6 *1281:A1 *430:10 0.000126188
7 *1281:A1 *431:10 9.85586e-06
8 *1281:A1 *435:31 0.000416231
9 *241:10 *329:109 7.72342e-05
10 *241:10 *435:14 0.000108352
11 *241:10 *435:31 4.76374e-05
12 *1281:B1 *1281:A1 8.76309e-05
13 *142:40 *1281:A1 1.7074e-05
14 *142:40 *1285:B1 6.17437e-06
15 *142:40 *241:10 0.00013066
16 *142:55 *1281:A1 0
17 *142:61 *1281:A1 5.3304e-05
18 *160:39 *1281:A1 0.000219666
19 *176:14 *1285:B1 9.79925e-05
*RES
1 *1280:Y *241:10 41.8321 
2 *241:10 *1285:B1 39.0979 
3 *241:10 *1281:A1 47.9014 
*END

*D_NET *242 0.00611452
*CONN
*I *1284:A I *D sky130_fd_sc_hd__clkbuf_1
*I *1283:X O *D sky130_fd_sc_hd__and3b_1
*CAP
1 *1284:A 0
2 *1283:X 1.10877e-05
3 *242:14 0.00231464
4 *242:8 0.00232573
5 *242:8 *436:14 5.58003e-05
6 *242:8 *437:48 5.82853e-05
7 *242:14 *1226:A 0
8 *242:14 *1251:A1 0.000190323
9 *242:14 *1253:A 0
10 *242:14 *1391:S 0.000137796
11 *242:14 *1598:A 0
12 *242:14 *1605:A 0
13 *242:14 *288:64 0.00012047
14 *242:14 *288:76 0.000152963
15 *242:14 *301:10 0
16 *242:14 *333:10 0
17 *242:14 *362:10 0.000136486
18 *242:14 *365:10 0.000146195
19 *242:14 *422:14 0
20 *242:14 *438:23 0
21 *242:14 *438:42 0
22 *242:14 *444:31 0
23 *242:14 *455:33 0
24 *242:14 *455:39 0.00032218
25 *242:14 *473:8 4.334e-05
26 *56:8 *242:14 5.80963e-05
27 *117:8 *242:14 0
28 *221:8 *242:14 4.11274e-05
*RES
1 *1283:X *242:8 38.6214 
2 *242:8 *242:14 48.4507 
3 *242:14 *1284:A 38 
*END

*D_NET *243 0.00048523
*CONN
*I *1287:A I *D sky130_fd_sc_hd__clkbuf_1
*I *1286:X O *D sky130_fd_sc_hd__and3b_1
*CAP
1 *1287:A 0.000101863
2 *1286:X 6.10662e-05
3 *243:8 0.000162929
4 *1287:A *1599:A 6.07084e-05
5 *1287:A *437:31 0
6 *243:8 *437:31 8.85189e-05
7 *1286:B *243:8 1.01436e-05
*RES
1 *1286:X *243:8 39.2014 
2 *243:8 *1287:A 40.2993 
*END

*D_NET *244 0.0136806
*CONN
*I *1321:A I *D sky130_fd_sc_hd__inv_2
*I *1322:A I *D sky130_fd_sc_hd__inv_2
*I *1307:A I *D sky130_fd_sc_hd__clkbuf_8
*I *1318:A I *D sky130_fd_sc_hd__inv_2
*I *1319:A I *D sky130_fd_sc_hd__inv_2
*I *1320:A I *D sky130_fd_sc_hd__inv_2
*I *1324:A I *D sky130_fd_sc_hd__inv_2
*I *1289:A I *D sky130_fd_sc_hd__nor2_4
*I *1381:B I *D sky130_fd_sc_hd__or3b_1
*I *1323:A I *D sky130_fd_sc_hd__inv_2
*I *1288:X O *D sky130_fd_sc_hd__buf_4
*CAP
1 *1321:A 0.000105864
2 *1322:A 0
3 *1307:A 0
4 *1318:A 0
5 *1319:A 0
6 *1320:A 0.000103347
7 *1324:A 0.000498677
8 *1289:A 0.000152755
9 *1381:B 0
10 *1323:A 0.000273394
11 *1288:X 0
12 *244:130 0.000427909
13 *244:112 0.000577127
14 *244:100 0.000564935
15 *244:83 0.000841444
16 *244:66 0.000644135
17 *244:51 0.000876034
18 *244:47 0.00107035
19 *244:30 0.00119703
20 *244:21 0.000306969
21 *244:8 0.000728553
22 *244:4 0.000278544
23 *1320:A *437:31 0.000188934
24 *1321:A *288:28 0.000143441
25 *1321:A *402:29 3.85196e-05
26 *1323:A *427:12 0.000274078
27 *1324:A *444:12 0.000265935
28 *244:8 *288:28 0.000448458
29 *244:8 *516:6 6.17437e-06
30 *244:21 *288:28 0
31 *244:21 *516:29 5.0135e-05
32 *244:21 *516:40 2.36844e-05
33 *244:47 *1158:B 0.000143509
34 *244:51 *1158:B 0.000233367
35 *244:66 *444:12 0.000235393
36 *244:83 *444:12 6.74097e-05
37 *244:100 *268:22 0.000111148
38 *244:100 *499:19 0.000222113
39 *244:112 *288:28 4.72245e-05
40 *244:130 *1166:B 0
41 *244:130 *1169:A1 0
42 *244:130 *402:12 3.64337e-05
43 *244:130 *515:14 4.03799e-05
44 *244:130 *515:30 8.7741e-06
45 *1159:A1 *244:130 0
46 *1168:A *244:8 4.95081e-05
47 *1168:B *244:8 0.000230604
48 *1170:B *1321:A 5.33998e-05
49 *1289:B *1289:A 0.000185434
50 *50:8 *244:66 2.59423e-05
51 *52:12 *244:130 2.82839e-05
52 *53:8 *1323:A 0
53 *53:8 *244:21 0
54 *77:10 *1321:A 1.59071e-05
55 *78:10 *244:21 0
56 *143:6 *244:47 4.76173e-05
57 *144:46 *1289:A 7.42621e-05
58 *145:35 *244:47 0.000163102
59 *146:10 *244:21 4.6318e-06
60 *146:10 *244:30 6.32688e-05
61 *146:10 *244:47 6.47461e-06
62 *149:16 *244:130 4.25665e-05
63 *149:31 *1321:A 5.73309e-05
64 *149:31 *244:130 0.000209896
65 *150:8 *244:130 0
66 *159:33 *244:83 0.00025307
67 *163:173 *244:100 9.47227e-05
68 *238:14 *244:83 0.000100069
69 *238:14 *244:100 0.000742295
*RES
1 *1288:X *244:4 23 
2 *244:4 *244:8 23.7207 
3 *244:8 *1323:A 43.9657 
4 *244:8 *244:21 4.01857 
5 *244:21 *1381:B 38 
6 *244:21 *244:30 1.90571 
7 *244:30 *1289:A 41.9771 
8 *244:30 *244:47 31.095 
9 *244:47 *244:51 17.5271 
10 *244:51 *1324:A 48.0879 
11 *244:51 *244:66 6.48357 
12 *244:66 *1320:A 40.5479 
13 *244:66 *244:83 21.525 
14 *244:83 *1319:A 23 
15 *244:83 *244:100 43.2779 
16 *244:100 *1318:A 23 
17 *244:47 *1307:A 23 
18 *244:4 *244:112 1.09786 
19 *244:112 *244:130 39.3525 
20 *244:130 *1322:A 23 
21 *244:112 *1321:A 26.5007 
*END

*D_NET *245 0.030648
*CONN
*I *1302:S I *D sky130_fd_sc_hd__mux2_1
*I *1304:S I *D sky130_fd_sc_hd__mux2_1
*I *1300:S I *D sky130_fd_sc_hd__mux2_1
*I *1290:S I *D sky130_fd_sc_hd__mux2_1
*I *1294:S I *D sky130_fd_sc_hd__mux2_1
*I *1298:S I *D sky130_fd_sc_hd__mux2_1
*I *1292:S I *D sky130_fd_sc_hd__mux2_1
*I *1296:S I *D sky130_fd_sc_hd__mux2_1
*I *1289:Y O *D sky130_fd_sc_hd__nor2_4
*CAP
1 *1302:S 0.000536255
2 *1304:S 0
3 *1300:S 0
4 *1290:S 1.73929e-05
5 *1294:S 2.18824e-05
6 *1298:S 0
7 *1292:S 5.5367e-05
8 *1296:S 2.34823e-05
9 *1289:Y 0.000137238
10 *245:151 0.0012571
11 *245:132 0.0021113
12 *245:121 0.000396055
13 *245:102 0.00120505
14 *245:85 0.00106057
15 *245:81 0.00154789
16 *245:56 0.000275198
17 *245:46 0.00168026
18 *245:33 0.000602157
19 *245:20 0.000545779
20 *245:16 0.00181406
21 *245:10 0.00312476
22 *245:8 0.000137238
23 *1292:S *1331:A1 4.21281e-05
24 *1292:S *422:54 2.93845e-05
25 *1302:S *1359:A0 0.000360966
26 *1302:S *1359:S 0.000313788
27 *1302:S *252:10 3.3246e-05
28 *1302:S *399:16 0.000397508
29 *1302:S *477:26 0.000126486
30 *1302:S *492:6 9.88259e-05
31 *245:16 *1153:B 0
32 *245:16 *1457:CLK 0
33 *245:16 *1538:A 0
34 *245:16 *330:10 0
35 *245:16 *444:66 1.58805e-05
36 *245:16 *510:12 0
37 *245:16 *512:92 0.000106754
38 *245:20 *1296:A1 0.000139357
39 *245:20 *330:38 2.18409e-05
40 *245:20 *444:46 9.67842e-05
41 *245:33 *328:113 0.000102679
42 *245:33 *330:38 6.82514e-05
43 *245:33 *425:47 0.000452133
44 *245:33 *437:89 0.000172564
45 *245:33 *437:112 6.16439e-05
46 *245:46 *425:47 0.000285204
47 *245:46 *437:112 0.000295347
48 *245:56 *1543:A 0.000135616
49 *245:56 *333:91 9.66585e-05
50 *245:56 *333:98 2.43944e-05
51 *245:81 *1456:CLK 0.000214388
52 *245:81 *1506:CLK 0.000231585
53 *245:81 *288:98 3.40187e-05
54 *245:81 *309:23 4.95928e-05
55 *245:81 *333:98 0.00012463
56 *245:81 *338:8 0.000188927
57 *245:81 *363:8 0.000112396
58 *245:85 *1294:A0 8.20567e-05
59 *245:85 *1565:A 0.000171107
60 *245:85 *288:111 0.000740224
61 *245:85 *363:14 5.58003e-05
62 *245:85 *438:92 0.000105491
63 *245:102 *1260:A1 1.61385e-05
64 *245:102 *1294:A0 2.33679e-05
65 *245:102 *288:111 0.000737534
66 *245:102 *345:20 6.63793e-06
67 *245:102 *395:25 0.000322733
68 *245:102 *438:92 9.50968e-06
69 *245:102 *438:96 0.000583738
70 *245:121 *335:99 2.93747e-05
71 *245:132 *1159:D1 1.61385e-05
72 *245:132 *1304:A0 7.71946e-05
73 *245:132 *413:32 0.000595385
74 *245:132 *413:34 5.14826e-05
75 *245:132 *413:36 2.193e-05
76 *245:132 *488:90 9.03964e-06
77 *245:132 *514:42 0.000413315
78 *245:132 *516:67 0.000141355
79 *245:151 *1304:A0 9.77922e-06
80 *245:151 *1360:A 0.000322404
81 *245:151 *1487:CLK 1.0092e-05
82 *245:151 *1591:A 0.000316594
83 *245:151 *275:8 8.57577e-05
84 *245:151 *331:36 0.000187612
85 *1159:A2 *245:132 0.000490867
86 *1175:A2 *245:16 0
87 *1176:A *245:16 0
88 *1188:B *245:16 0.000152171
89 *1206:A2 *245:151 4.38353e-05
90 *1207:A2 *1302:S 0.000100486
91 *1213:A1 *1302:S 4.93812e-05
92 *1506:D *245:81 4.9054e-06
93 *60:10 *245:102 9.79925e-05
94 *143:6 *245:16 0.000187363
95 *143:6 *245:132 5.58003e-05
96 *152:12 *245:16 0.000292542
97 *152:18 *245:16 2.05944e-05
98 *152:46 *245:16 0.000118509
99 *154:10 *245:16 0
100 *157:75 *245:16 8.73786e-05
101 *158:83 *245:16 0
102 *160:150 *245:121 0.000371023
103 *165:165 *245:33 0.00071328
104 *166:118 *245:121 0.000213332
105 *167:101 *245:102 3.80273e-05
106 *167:112 *245:16 0.000261997
107 *168:24 *245:16 0
108 *182:10 *1302:S 0.00010766
109 *188:10 *1302:S 3.7122e-06
110 *189:10 *245:121 5.50049e-05
111 *198:6 *245:56 3.28708e-05
112 *203:6 *245:56 1.6318e-05
113 *205:12 *245:20 0.000265477
114 *205:12 *245:33 0.000137651
115 *222:8 *1292:S 0.000137651
116 *229:16 *1290:S 1.12796e-05
117 *229:16 *245:102 0.000338601
118 *229:16 *245:121 0.000118516
*RES
1 *1289:Y *245:8 40.61 
2 *245:8 *245:10 15 
3 *245:10 *245:16 47.8321 
4 *245:16 *245:20 18.0036 
5 *245:20 *1296:S 23.4971 
6 *245:20 *245:33 27.6357 
7 *245:33 *1292:S 39.5743 
8 *245:33 *245:46 19.0186 
9 *245:46 *245:56 34.3396 
10 *245:56 *1298:S 23 
11 *245:46 *245:81 36.2736 
12 *245:81 *245:85 23.2443 
13 *245:85 *1294:S 23.4971 
14 *245:85 *245:102 19.5336 
15 *245:102 *1290:S 23.4971 
16 *245:102 *245:121 39.1971 
17 *245:121 *1300:S 23 
18 *245:10 *245:132 30.8021 
19 *245:132 *1304:S 23 
20 *245:132 *245:151 42.9464 
21 *245:151 *1302:S 39.0536 
*END

*D_NET *246 0.00178663
*CONN
*I *1291:A I *D sky130_fd_sc_hd__clkbuf_1
*I *1290:X O *D sky130_fd_sc_hd__mux2_1
*CAP
1 *1291:A 0
2 *1290:X 0.000471926
3 *246:10 0.000471926
4 *246:10 *1480:CLK 1.22906e-05
5 *246:10 *1485:CLK 9.96609e-05
6 *246:10 *258:104 0.000179465
7 *246:10 *299:109 1.98473e-05
8 *158:170 *246:10 0.00039503
9 *163:98 *246:10 0
10 *230:10 *246:10 0.000136486
*RES
1 *1290:X *246:10 47.5907 
2 *246:10 *1291:A 38 
*END

*D_NET *247 0.00147143
*CONN
*I *1293:A I *D sky130_fd_sc_hd__clkbuf_1
*I *1292:X O *D sky130_fd_sc_hd__mux2_1
*CAP
1 *1293:A 0.000451809
2 *1292:X 0.000216953
3 *247:8 0.000668762
4 *247:8 *249:10 4.6318e-06
5 *142:128 *247:8 0.000129276
6 *158:91 *247:8 0
*RES
1 *1292:X *247:8 42.7229 
2 *247:8 *1293:A 45.2914 
*END

*D_NET *248 0.000883096
*CONN
*I *1295:A I *D sky130_fd_sc_hd__clkbuf_1
*I *1294:X O *D sky130_fd_sc_hd__mux2_1
*CAP
1 *1295:A 0
2 *1294:X 0.000218283
3 *248:10 0.000218283
4 *248:10 *1294:A1 0.00013757
5 *248:10 *438:92 0.0001784
6 *172:98 *248:10 0.000130561
*RES
1 *1294:X *248:10 41.9564 
2 *248:10 *1295:A 38 
*END

*D_NET *249 0.000834501
*CONN
*I *1297:A I *D sky130_fd_sc_hd__clkbuf_1
*I *1296:X O *D sky130_fd_sc_hd__mux2_1
*CAP
1 *1297:A 0
2 *1296:X 0.000284038
3 *249:10 0.000284038
4 *249:10 *1457:CLK 1.4471e-05
5 *249:10 *444:66 8.62876e-05
6 *58:8 *249:10 9.28842e-05
7 *142:116 *249:10 0
8 *142:128 *249:10 1.14452e-05
9 *158:83 *249:10 0
10 *158:91 *249:10 0
11 *205:12 *249:10 5.67058e-05
12 *247:8 *249:10 4.6318e-06
*RES
1 *1296:X *249:10 43.6964 
2 *249:10 *1297:A 38 
*END

*D_NET *250 0.000900271
*CONN
*I *1299:A I *D sky130_fd_sc_hd__clkbuf_1
*I *1298:X O *D sky130_fd_sc_hd__mux2_1
*CAP
1 *1299:A 0
2 *1298:X 0.000202379
3 *250:10 0.000202379
4 *250:10 *333:16 6.17437e-06
5 *1225:B1 *250:10 5.82853e-05
6 *158:121 *250:10 8.7579e-05
7 *198:6 *250:10 0.000102971
8 *203:6 *250:10 0.000240504
*RES
1 *1298:X *250:10 28.9036 
2 *250:10 *1299:A 23 
*END

*D_NET *251 0.00134955
*CONN
*I *1301:A I *D sky130_fd_sc_hd__clkbuf_1
*I *1300:X O *D sky130_fd_sc_hd__mux2_1
*CAP
1 *1301:A 0
2 *1300:X 0.000371678
3 *251:10 0.000371678
4 *251:10 *335:99 0.000173716
5 *251:10 *335:106 9.4464e-05
6 *251:10 *366:27 3.7122e-06
7 *1221:A2 *251:10 0.000188901
8 *189:10 *251:10 1.32939e-05
9 *194:16 *251:10 0.000129299
10 *227:10 *251:10 2.81406e-06
*RES
1 *1300:X *251:10 45.1257 
2 *251:10 *1301:A 38 
*END

*D_NET *252 0.0018072
*CONN
*I *1303:A I *D sky130_fd_sc_hd__clkbuf_1
*I *1302:X O *D sky130_fd_sc_hd__mux2_1
*CAP
1 *1303:A 3.74341e-05
2 *1302:X 0.000279893
3 *252:10 0.000317327
4 *1303:A *331:105 0.000100477
5 *252:10 *399:16 0.000454145
6 *252:10 *477:26 0.000539708
7 *1207:A2 *252:10 6.17437e-06
8 *1302:S *252:10 3.3246e-05
9 *1460:D *1303:A 1.35999e-05
10 *181:10 *252:10 2.51913e-05
*RES
1 *1302:X *252:10 46.4721 
2 *252:10 *1303:A 39.0979 
*END

*D_NET *253 0.000677759
*CONN
*I *1305:A I *D sky130_fd_sc_hd__clkbuf_1
*I *1304:X O *D sky130_fd_sc_hd__mux2_1
*CAP
1 *1305:A 3.80995e-05
2 *1304:X 0.000199768
3 *253:8 0.000237867
4 *253:8 *331:76 0
5 *253:8 *488:90 0.000119733
6 *62:10 *253:8 8.22907e-05
*RES
1 *1304:X *253:8 43.075 
2 *253:8 *1305:A 38.6214 
*END

*D_NET *254 0.0366252
*CONN
*I *1309:A I *D sky130_fd_sc_hd__inv_2
*I *1310:A I *D sky130_fd_sc_hd__inv_2
*I *1308:A I *D sky130_fd_sc_hd__inv_2
*I *1315:A I *D sky130_fd_sc_hd__inv_2
*I *1316:A I *D sky130_fd_sc_hd__inv_2
*I *1312:A I *D sky130_fd_sc_hd__inv_2
*I *1313:A I *D sky130_fd_sc_hd__inv_2
*I *1314:A I *D sky130_fd_sc_hd__inv_2
*I *1311:A I *D sky130_fd_sc_hd__inv_2
*I *1317:A I *D sky130_fd_sc_hd__inv_2
*I *1307:X O *D sky130_fd_sc_hd__clkbuf_8
*CAP
1 *1309:A 0
2 *1310:A 0
3 *1308:A 0
4 *1315:A 0
5 *1316:A 0.00040445
6 *1312:A 4.98415e-05
7 *1313:A 2.84143e-05
8 *1314:A 0.000207668
9 *1311:A 0.000147811
10 *1317:A 0.000206946
11 *1307:X 9.1211e-05
12 *254:129 0.00040445
13 *254:127 0.00141815
14 *254:123 0.00197032
15 *254:113 0.00139945
16 *254:109 0.000971008
17 *254:105 0.00313025
18 *254:82 0.00416696
19 *254:74 0.00248789
20 *254:61 0.00153704
21 *254:46 0.00112587
22 *254:29 0.00191345
23 *254:16 0.000916972
24 *254:8 0.00178002
25 *1312:A *1240:A0 5.12302e-05
26 *1313:A *1640:A 9.67842e-05
27 *1314:A *1492:CLK 2.30292e-05
28 *1316:A *413:22 0.000321251
29 *1317:A *1179:A2 0
30 *1317:A *1179:C1 5.3304e-05
31 *1317:A *437:8 6.36307e-05
32 *1317:A *437:31 3.17634e-05
33 *254:8 *418:14 0.000139006
34 *254:8 *444:12 0.000136669
35 *254:16 *329:18 0
36 *254:29 *418:12 1.14452e-05
37 *254:29 *418:14 0.00109865
38 *254:29 *444:12 0.000698779
39 *254:29 *502:10 0.000169674
40 *254:46 *1355:S 0
41 *254:46 *1615:A 0.000166641
42 *254:46 *1640:A 3.47776e-05
43 *254:46 *268:37 0
44 *254:46 *270:12 0.000194318
45 *254:46 *409:8 0.000164003
46 *254:46 *418:12 0.000179702
47 *254:61 *1492:CLK 9.39159e-05
48 *254:61 *1640:A 0.000123439
49 *254:74 *1640:A 8.43466e-05
50 *254:74 *263:10 1.01436e-05
51 *254:74 *334:8 5.47808e-05
52 *254:74 *425:47 0.000169683
53 *254:74 *437:112 7.80251e-05
54 *254:82 *1240:A0 2.61526e-05
55 *254:82 *1521:CLK 3.71251e-05
56 *254:82 *299:34 7.44161e-06
57 *254:82 *299:46 7.37292e-05
58 *254:82 *309:105 0.000164502
59 *254:82 *455:74 2.79543e-05
60 *254:105 *1240:A0 5.45025e-05
61 *254:105 *1402:S 0.000119019
62 *254:105 *258:104 0
63 *254:105 *299:97 0.000310298
64 *254:105 *309:37 0.00169895
65 *254:105 *410:10 5.02335e-05
66 *254:105 *433:20 8.22421e-06
67 *254:113 *1592:A 0.000143126
68 *254:113 *337:25 4.95442e-05
69 *254:113 *342:10 8.07477e-05
70 *254:113 *410:10 0
71 *254:113 *431:16 0.000252671
72 *254:123 *1270:A2 0.000329205
73 *254:123 *431:16 0
74 *254:127 *1270:A2 0
75 *254:127 *299:129 0
76 *254:127 *299:150 0.000623521
77 *254:127 *408:10 0.000124406
78 *254:127 *413:12 0
79 *254:127 *439:8 2.84201e-05
80 *254:127 *477:66 0.00115269
81 *254:127 *488:16 0
82 *254:127 *499:63 0.000194344
83 *1214:A *1316:A 0.000231166
84 *1232:A *1313:A 9.67842e-05
85 *1232:A *254:74 0.000185434
86 *1249:S *1311:A 0
87 *1475:D *254:16 5.56279e-05
88 *1475:RESET_B *254:16 0.000178728
89 *1492:D *1314:A 4.9054e-06
90 *1521:D *254:82 1.9191e-05
91 *38:8 *254:127 0.000199125
92 *40:8 *254:113 0.000199701
93 *41:8 *254:46 0
94 *44:8 *254:46 0
95 *45:8 *254:127 0.000115526
96 *85:10 *254:74 7.15126e-05
97 *118:8 *254:123 0
98 *157:10 *254:16 0
99 *158:22 *1317:A 5.67058e-05
100 *163:14 *1311:A 0.000171296
101 *163:14 *254:29 0
102 *163:24 *1311:A 1.24376e-05
103 *163:24 *254:46 0.000545923
104 *163:70 *254:82 0.00021694
105 *163:230 *254:127 0
106 *172:98 *254:105 2.31209e-05
107 *172:108 *254:105 4.9662e-05
108 *195:18 *254:46 7.63251e-06
109 *196:8 *254:46 0
110 *196:8 *254:61 0
111 *212:10 *254:82 5.14746e-06
112 *219:24 *1311:A 1.46286e-05
113 *227:16 *254:113 0
*RES
1 *1307:X *254:8 41.6664 
2 *254:8 *254:16 39.3214 
3 *254:16 *1317:A 41.9771 
4 *254:8 *254:29 29.725 
5 *254:29 *1311:A 41.0243 
6 *254:29 *254:46 20.2793 
7 *254:46 *1314:A 41.2521 
8 *254:46 *254:61 18.6664 
9 *254:61 *1313:A 24.0979 
10 *254:61 *254:74 40.7479 
11 *254:74 *254:82 31.5093 
12 *254:82 *1312:A 24.4293 
13 *254:82 *254:105 46.1335 
14 *254:105 *254:109 17.0507 
15 *254:109 *254:113 35.2171 
16 *254:113 *254:123 25.585 
17 *254:123 *254:127 48.9507 
18 *254:127 *254:129 15 
19 *254:129 *1316:A 32.715 
20 *254:129 *1315:A 23 
21 *254:123 *1308:A 23 
22 *254:113 *1310:A 38 
23 *254:109 *1309:A 23 
*END

*D_NET *255 0.00122656
*CONN
*I *1363:B I *D sky130_fd_sc_hd__and3b_1
*I *1327:A I *D sky130_fd_sc_hd__and2_1
*I *1345:C I *D sky130_fd_sc_hd__and3b_1
*I *1325:X O *D sky130_fd_sc_hd__and4b_1
*CAP
1 *1363:B 8.60524e-05
2 *1327:A 2.50057e-05
3 *1345:C 2.31401e-05
4 *1325:X 0.00011415
5 *255:19 0.000235217
6 *255:8 0.000261449
7 *1327:A *1327:B 1.32314e-05
8 *1345:C *268:16 5.58003e-05
9 *1345:C *514:53 3.34276e-06
10 *1345:C *514:59 1.24362e-05
11 *1363:B *1327:B 8.85189e-05
12 *1363:B *1345:A_N 8.15327e-05
13 *1363:B *258:14 0
14 *255:8 *1345:A_N 1.97402e-05
15 *255:8 *514:53 3.88629e-05
16 *255:19 *1345:A_N 7.32335e-05
17 *1399:C *255:8 3.98401e-05
18 *168:38 *1327:A 5.50106e-05
*RES
1 *1325:X *255:8 40.61 
2 *255:8 *1345:C 38.6214 
3 *255:8 *255:19 2.25786 
4 *255:19 *1327:A 38.6214 
5 *255:19 *1363:B 40.2579 
*END

*D_NET *256 0.00326108
*CONN
*I *1400:A I *D sky130_fd_sc_hd__and2_1
*I *1327:B I *D sky130_fd_sc_hd__and2_1
*I *1326:Y O *D sky130_fd_sc_hd__nor2_1
*CAP
1 *1400:A 0.000150968
2 *1327:B 0.000384161
3 *1326:Y 0.000342927
4 *256:10 0.000878056
5 *1327:B *1345:A_N 5.22659e-05
6 *1327:B *257:10 0
7 *1327:B *514:100 1.27263e-05
8 *1327:B *514:115 0.00018383
9 *1327:B *515:65 8.04817e-05
10 *1400:A *1400:B 5.50049e-05
11 *1400:A *297:25 1.63023e-05
12 *1400:A *298:12 9.30054e-05
13 *1400:A *514:100 5.3304e-05
14 *1400:A *515:61 0.000345311
15 *1400:A *515:91 5.3304e-05
16 *1400:A *515:102 5.15762e-05
17 *256:10 *429:16 0
18 *256:10 *435:50 0.00026808
19 *256:10 *514:115 8.85189e-05
20 *256:10 *515:115 0
21 *1327:A *1327:B 1.32314e-05
22 *1363:B *1327:B 8.85189e-05
23 *168:38 *1327:B 4.95081e-05
*RES
1 *1326:Y *256:10 43.2614 
2 *256:10 *1327:B 45.9336 
3 *256:10 *1400:A 42.9507 
*END

*D_NET *257 0.000400406
*CONN
*I *1328:A I *D sky130_fd_sc_hd__clkbuf_4
*I *1327:X O *D sky130_fd_sc_hd__and2_1
*CAP
1 *1328:A 0
2 *1327:X 0.000166983
3 *257:10 0.000166983
4 *257:10 *258:14 4.90994e-05
5 *1327:B *257:10 0
6 *168:38 *257:10 1.73399e-05
*RES
1 *1327:X *257:10 40.8793 
2 *257:10 *1328:A 38 
*END

*D_NET *258 0.0280571
*CONN
*I *1335:S I *D sky130_fd_sc_hd__mux2_1
*I *1331:S I *D sky130_fd_sc_hd__mux2_1
*I *1329:S I *D sky130_fd_sc_hd__mux2_1
*I *1339:S I *D sky130_fd_sc_hd__mux2_1
*I *1333:S I *D sky130_fd_sc_hd__mux2_1
*I *1337:S I *D sky130_fd_sc_hd__mux2_1
*I *1341:S I *D sky130_fd_sc_hd__mux2_1
*I *1343:S I *D sky130_fd_sc_hd__mux2_1
*I *1328:X O *D sky130_fd_sc_hd__clkbuf_4
*CAP
1 *1335:S 0
2 *1331:S 0
3 *1329:S 0.000135063
4 *1339:S 0
5 *1333:S 0
6 *1337:S 0.000126873
7 *1341:S 0.00063288
8 *1343:S 2.34823e-05
9 *1328:X 1.80182e-05
10 *258:122 0.000449288
11 *258:110 0.000754099
12 *258:104 0.00198581
13 *258:85 0.00279028
14 *258:60 0.0015344
15 *258:56 0.00069966
16 *258:48 0.000684796
17 *258:40 0.0017777
18 *258:14 0.00171632
19 *258:8 0.00243723
20 *1329:S *1329:A0 5.68958e-05
21 *1329:S *1329:A1 8.40964e-05
22 *1329:S *1330:A 5.15762e-05
23 *1341:S *1212:A1 0.000604843
24 *1341:S *1343:A0 9.45591e-05
25 *1341:S *265:10 4.96207e-05
26 *1341:S *351:31 8.82787e-05
27 *1343:S *1343:A0 0
28 *258:8 *277:10 5.50106e-05
29 *258:14 *1343:A0 5.70419e-05
30 *258:14 *1361:A1 5.3304e-05
31 *258:14 *1361:S 0.000315386
32 *258:14 *266:10 0.000184527
33 *258:14 *351:31 4.39725e-05
34 *258:14 *368:25 1.5769e-05
35 *258:14 *514:115 0
36 *258:40 *1335:A0 1.89095e-05
37 *258:40 *1523:CLK 5.67058e-05
38 *258:40 *277:10 4.37697e-05
39 *258:40 *278:57 0.000117541
40 *258:40 *297:42 0
41 *258:40 *298:12 0.000166522
42 *258:40 *299:14 0
43 *258:40 *308:10 0.000323822
44 *258:40 *309:10 0.000961534
45 *258:40 *309:23 0.000191157
46 *258:40 *319:12 0
47 *258:40 *444:81 0.00010947
48 *258:40 *514:115 0
49 *258:40 *515:115 0
50 *258:48 *299:22 1.94418e-05
51 *258:48 *443:8 6.32688e-05
52 *258:56 *1257:A1 5.40241e-05
53 *258:56 *1331:A0 1.83408e-05
54 *258:56 *333:108 0
55 *258:56 *437:106 0
56 *258:60 *333:108 0.000214884
57 *258:60 *341:18 0.000165947
58 *258:60 *451:8 0.000290917
59 *258:85 *1248:A1 0.000383222
60 *258:85 *1351:A0 0.0002263
61 *258:85 *1351:A1 0.000182826
62 *258:85 *268:124 0.00062991
63 *258:85 *341:18 0.000129504
64 *258:85 *422:44 0
65 *258:85 *433:50 0.000339308
66 *258:85 *438:69 0.000578149
67 *258:85 *455:50 0
68 *258:85 *467:10 0
69 *258:104 *1248:A1 2.4754e-05
70 *258:104 *1294:A1 0
71 *258:104 *1480:CLK 0.00014411
72 *258:104 *268:124 0.000100805
73 *258:104 *299:109 1.76043e-05
74 *258:104 *339:14 2.18409e-05
75 *258:104 *433:22 0
76 *258:110 *1329:A1 0.000356126
77 *258:110 *1330:A 0.00018536
78 *258:122 *1221:A1 0.000166049
79 *258:122 *264:10 0.000218046
80 *258:122 *466:10 0
81 *1193:B1 *258:14 5.3304e-05
82 *1212:B1 *1341:S 3.88617e-05
83 *1239:B1 *258:48 0.000140259
84 *1248:B2 *258:85 5.10686e-05
85 *1363:B *258:14 0
86 *1523:D *258:40 0.000187073
87 *5:21 *258:48 0.000221184
88 *81:10 *1329:S 3.96881e-05
89 *158:45 *258:8 2.93845e-05
90 *158:135 *1337:S 7.82513e-05
91 *158:158 *258:104 0.000351473
92 *158:170 *258:122 1.30921e-05
93 *163:98 *258:122 0.000184714
94 *163:189 *258:40 2.05503e-05
95 *165:165 *258:60 0
96 *166:46 *258:60 0
97 *168:38 *258:14 0.000723361
98 *169:10 *258:14 0.000870938
99 *176:24 *258:40 0.000111941
100 *186:14 *1341:S 5.50106e-05
101 *206:10 *258:48 1.7992e-05
102 *206:10 *258:56 0
103 *219:12 *258:48 0.000349386
104 *219:24 *258:40 1.73399e-05
105 *222:8 *258:56 0.000232734
106 *226:14 *258:60 0
107 *226:14 *258:85 0
108 *246:10 *258:104 0.000179465
109 *254:105 *258:104 0
110 *257:10 *258:14 4.90994e-05
*RES
1 *1328:X *258:8 38.6214 
2 *258:8 *258:14 42.405 
3 *258:14 *1343:S 23.4971 
4 *258:14 *1341:S 37.6036 
5 *258:8 *258:40 45.6779 
6 *258:40 *258:48 40.3364 
7 *258:48 *258:56 35.4893 
8 *258:56 *258:60 23.9486 
9 *258:60 *1337:S 40.5271 
10 *258:60 *258:85 41.0793 
11 *258:85 *1333:S 23 
12 *258:85 *258:104 38.8587 
13 *258:104 *258:110 19.8057 
14 *258:110 *258:122 39.3214 
15 *258:122 *1339:S 23 
16 *258:110 *1329:S 26.9979 
17 *258:56 *1331:S 23 
18 *258:40 *1335:S 23 
*END

*D_NET *259 0.000474684
*CONN
*I *1330:A I *D sky130_fd_sc_hd__clkbuf_1
*I *1329:X O *D sky130_fd_sc_hd__mux2_1
*CAP
1 *1330:A 0.000101823
2 *1329:X 0.000101823
3 *1329:S *1330:A 5.15762e-05
4 *81:10 *1330:A 3.41017e-05
5 *258:110 *1330:A 0.00018536
*RES
1 *1329:X *1330:A 48.9 
*END

*D_NET *260 0.00111099
*CONN
*I *1332:A I *D sky130_fd_sc_hd__clkbuf_1
*I *1331:X O *D sky130_fd_sc_hd__mux2_1
*CAP
1 *1332:A 7.64588e-05
2 *1331:X 0.000225928
3 *260:8 0.000302387
4 *1332:A *341:18 8.45174e-05
5 *82:10 *1332:A 0.000100069
6 *82:10 *260:8 0.000215252
7 *165:165 *260:8 5.91573e-05
8 *166:46 *1332:A 4.72245e-05
*RES
1 *1331:X *260:8 42.7229 
2 *260:8 *1332:A 40.5479 
*END

*D_NET *261 0.00225423
*CONN
*I *1334:A I *D sky130_fd_sc_hd__clkbuf_1
*I *1333:X O *D sky130_fd_sc_hd__mux2_1
*CAP
1 *1334:A 0.000137285
2 *1333:X 0.000279625
3 *261:10 0.00041691
4 *1334:A *336:34 0.000568886
5 *261:10 *268:124 9.5877e-05
6 *261:10 *278:57 0
7 *261:10 *328:135 0.000259658
8 *1248:A2 *261:10 1.14452e-05
9 *83:8 *1334:A 0.000484539
10 *214:10 *261:10 0
*RES
1 *1333:X *261:10 42.7643 
2 *261:10 *1334:A 44.3386 
*END

*D_NET *262 0.00085544
*CONN
*I *1336:A I *D sky130_fd_sc_hd__clkbuf_1
*I *1335:X O *D sky130_fd_sc_hd__mux2_1
*CAP
1 *1336:A 5.62636e-05
2 *1335:X 0.000271487
3 *262:8 0.00032775
4 *1336:A *1409:A 5.79559e-05
5 *262:8 *303:10 0.000114083
6 *262:8 *330:50 0
7 *262:8 *372:8 2.79004e-05
8 *262:8 *444:81 0
9 *262:8 *444:83 0
10 *262:8 *505:10 0
*RES
1 *1335:X *262:8 43.075 
2 *262:8 *1336:A 39.0979 
*END

*D_NET *263 0.00116148
*CONN
*I *1338:A I *D sky130_fd_sc_hd__clkbuf_1
*I *1337:X O *D sky130_fd_sc_hd__mux2_1
*CAP
1 *1338:A 0
2 *1337:X 0.00024419
3 *263:10 0.00024419
4 *263:10 *425:47 0.000309878
5 *263:10 *437:112 0.000344086
6 *158:121 *263:10 2.45549e-06
7 *158:135 *263:10 6.53345e-06
8 *254:74 *263:10 1.01436e-05
*RES
1 *1337:X *263:10 43.8207 
2 *263:10 *1338:A 38 
*END

*D_NET *264 0.000982844
*CONN
*I *1340:A I *D sky130_fd_sc_hd__clkbuf_1
*I *1339:X O *D sky130_fd_sc_hd__mux2_1
*CAP
1 *1340:A 8.43819e-05
2 *1339:X 0.000131396
3 *264:10 0.000215778
4 *1340:A *1485:CLK 0.000140931
5 *1485:D *1340:A 9.64943e-05
6 *163:98 *1340:A 1.21972e-05
7 *163:112 *264:10 8.36198e-05
8 *258:122 *264:10 0.000218046
*RES
1 *1339:X *264:10 40.8793 
2 *264:10 *1340:A 40.0507 
*END

*D_NET *265 0.00080564
*CONN
*I *1342:A I *D sky130_fd_sc_hd__clkbuf_1
*I *1341:X O *D sky130_fd_sc_hd__mux2_1
*CAP
1 *1342:A 0.000146768
2 *1341:X 0.000163751
3 *265:10 0.000310519
4 *1342:A *1486:CLK 6.17437e-06
5 *1342:A *1584:A 4.00259e-06
6 *265:10 *331:133 0.000110184
7 *1341:S *265:10 4.96207e-05
8 *1486:D *1342:A 1.46205e-05
9 *186:14 *265:10 0
*RES
1 *1341:X *265:10 40.6514 
2 *265:10 *1342:A 40.4236 
*END

*D_NET *266 0.00138825
*CONN
*I *1344:A I *D sky130_fd_sc_hd__clkbuf_1
*I *1343:X O *D sky130_fd_sc_hd__mux2_1
*CAP
1 *1344:A 0
2 *1343:X 0.000282321
3 *266:10 0.000282321
4 *266:10 *1343:A1 0.000141879
5 *266:10 *360:27 0
6 *266:10 *488:32 0.000203416
7 *179:12 *266:10 0.000293785
8 *258:14 *266:10 0.000184527
*RES
1 *1343:X *266:10 44.7736 
2 *266:10 *1344:A 38 
*END

*D_NET *267 0.000237421
*CONN
*I *1346:A I *D sky130_fd_sc_hd__clkbuf_4
*I *1345:X O *D sky130_fd_sc_hd__and3b_1
*CAP
1 *1346:A 8.42637e-05
2 *1345:X 8.42637e-05
3 *1346:A *268:16 6.88939e-05
*RES
1 *1345:X *1346:A 47.595 
*END

*D_NET *268 0.0335175
*CONN
*I *1359:S I *D sky130_fd_sc_hd__mux2_1
*I *1351:S I *D sky130_fd_sc_hd__mux2_1
*I *1347:S I *D sky130_fd_sc_hd__mux2_1
*I *1357:S I *D sky130_fd_sc_hd__mux2_1
*I *1361:S I *D sky130_fd_sc_hd__mux2_1
*I *1355:S I *D sky130_fd_sc_hd__mux2_1
*I *1349:S I *D sky130_fd_sc_hd__mux2_1
*I *1353:S I *D sky130_fd_sc_hd__mux2_1
*I *1346:X O *D sky130_fd_sc_hd__clkbuf_4
*CAP
1 *1359:S 0.000390148
2 *1351:S 0
3 *1347:S 0.000417049
4 *1357:S 2.68622e-05
5 *1361:S 7.05748e-05
6 *1355:S 0.000497924
7 *1349:S 0.000113787
8 *1353:S 5.25642e-05
9 *1346:X 0
10 *268:124 0.00111371
11 *268:101 0.00220439
12 *268:86 0.00202402
13 *268:75 0.00161187
14 *268:67 0.00181259
15 *268:37 0.00149036
16 *268:26 0.00106465
17 *268:22 0.00120092
18 *268:16 0.00288196
19 *268:4 0.00301914
20 *1347:S *1347:A0 2.81066e-05
21 *1347:S *1383:A0 5.61255e-06
22 *1349:S *1349:A0 1.32939e-05
23 *1349:S *1349:A1 3.22465e-05
24 *1349:S *270:12 3.23857e-06
25 *1353:S *1353:A0 0.000102389
26 *1353:S *444:31 0.000188927
27 *1355:S *333:20 1.34914e-05
28 *1355:S *476:8 3.98887e-05
29 *1357:S *1357:A1 0.000143535
30 *1357:S *425:28 0.000143535
31 *1359:S *1359:A1 1.12796e-05
32 *1359:S *331:34 0.000179893
33 *1359:S *351:12 6.08617e-05
34 *1359:S *351:31 0.000228233
35 *1359:S *477:26 1.84831e-05
36 *1359:S *477:36 1.47795e-05
37 *268:16 *1152:A 2.10502e-05
38 *268:16 *1152:B 0.000234202
39 *268:16 *1345:A_N 9.98069e-06
40 *268:16 *514:53 6.10998e-06
41 *268:16 *514:59 6.35485e-06
42 *268:16 *516:53 7.64059e-06
43 *268:16 *516:59 1.43651e-05
44 *268:22 *288:64 0.000215106
45 *268:22 *499:8 4.58494e-05
46 *268:22 *499:19 0.000126922
47 *268:37 *1566:A 0.000139856
48 *268:37 *270:12 0
49 *268:37 *348:25 0.000284699
50 *268:67 *1362:A 7.91414e-06
51 *268:67 *1495:CLK 3.53377e-05
52 *268:67 *331:23 9.92842e-05
53 *268:67 *331:34 3.61992e-05
54 *268:75 *352:10 6.91938e-05
55 *268:75 *368:25 0.000128689
56 *268:75 *435:58 2.16891e-05
57 *268:86 *319:38 0.000590678
58 *268:86 *319:47 0.000252501
59 *268:86 *319:66 0.000571339
60 *268:86 *328:36 0
61 *268:86 *332:10 2.44393e-05
62 *268:86 *359:24 1.1644e-05
63 *268:86 *360:14 9.20311e-06
64 *268:86 *390:10 0.000164282
65 *268:86 *435:58 0.000253879
66 *268:86 *456:10 0
67 *268:86 *477:118 0.000235532
68 *268:86 *488:108 0.000528149
69 *268:101 *1383:S 0.000270218
70 *268:101 *1544:A 0
71 *268:101 *288:121 4.47533e-05
72 *268:101 *319:66 0.000714908
73 *268:101 *319:84 0.000362041
74 *268:101 *328:20 0
75 *268:101 *500:10 2.3529e-05
76 *268:124 *1351:A0 5.41288e-05
77 *268:124 *1488:CLK 2.30292e-05
78 *268:124 *319:84 7.48331e-05
79 *268:124 *339:14 0.00010076
80 *268:124 *500:10 3.83778e-05
81 *1165:A *268:16 5.56279e-05
82 *1165:B *268:16 0.000319723
83 *1178:B *268:22 0.000423021
84 *1185:A2 *268:22 0.000479319
85 *1185:B1_N *268:22 5.79785e-05
86 *1302:S *1359:S 0.000313788
87 *1345:C *268:16 5.58003e-05
88 *1346:A *268:16 6.88939e-05
89 *1399:C *268:16 0.000180888
90 *1399:D *268:16 0.000140016
91 *1488:D *268:124 4.9054e-06
92 *1494:D *268:67 4.42833e-05
93 *1495:D *268:67 0.000111416
94 *47:8 *268:22 0.00019654
95 *95:8 *268:75 8.9728e-05
96 *102:8 *268:86 0.000166513
97 *106:10 *268:37 3.98887e-05
98 *108:10 *268:37 5.34638e-05
99 *148:6 *268:16 8.06804e-06
100 *152:72 *268:22 5.98919e-05
101 *152:105 *268:22 2.93335e-05
102 *157:8 *268:16 0.000360963
103 *157:60 *268:22 0.000179725
104 *158:12 *268:22 0.000331749
105 *163:45 *1355:S 0.000162753
106 *163:199 *268:86 0
107 *165:61 *268:86 0
108 *167:84 *1347:S 0.00036785
109 *168:8 *268:22 0.000112541
110 *168:38 *1361:S 0.000315386
111 *203:12 *1355:S 1.68817e-05
112 *219:8 *268:124 0.000438468
113 *244:100 *268:22 0.000111148
114 *254:46 *1355:S 0
115 *254:46 *268:37 0
116 *258:14 *1361:S 0.000315386
117 *258:85 *268:124 0.00062991
118 *258:104 *268:124 0.000100805
119 *261:10 *268:124 9.5877e-05
*RES
1 *1346:X *268:4 23 
2 *268:4 *268:16 45.3671 
3 *268:16 *268:22 42.6329 
4 *268:22 *268:26 17.2579 
5 *268:26 *1353:S 40.0507 
6 *268:26 *268:37 17.0479 
7 *268:37 *1349:S 40.5686 
8 *268:37 *1355:S 47.4043 
9 *268:4 *268:67 17.0686 
10 *268:67 *268:75 19.785 
11 *268:75 *1361:S 41.48 
12 *268:75 *268:86 30.7814 
13 *268:86 *1357:S 39.5743 
14 *268:86 *268:101 16.0536 
15 *268:101 *1347:S 44.235 
16 *268:101 *268:124 37.0193 
17 *268:124 *1351:S 23 
18 *268:67 *1359:S 32.135 
*END

*D_NET *269 0.00109173
*CONN
*I *1348:A I *D sky130_fd_sc_hd__clkbuf_1
*I *1347:X O *D sky130_fd_sc_hd__mux2_1
*CAP
1 *1348:A 0.000213844
2 *1347:X 5.58869e-05
3 *269:8 0.00026973
4 *1348:A *1383:A0 0.000112988
5 *1348:A *1383:A1 9.41704e-05
6 *1348:A *289:10 5.24794e-05
7 *105:14 *269:8 2.50029e-05
8 *167:84 *1348:A 0.000254359
9 *167:84 *269:8 1.32646e-05
*RES
1 *1347:X *269:8 38.8493 
2 *269:8 *1348:A 43.3857 
*END

*D_NET *270 0.00125355
*CONN
*I *1350:A I *D sky130_fd_sc_hd__clkbuf_1
*I *1349:X O *D sky130_fd_sc_hd__mux2_1
*CAP
1 *1350:A 0.000115692
2 *1349:X 0.000300458
3 *270:12 0.00041615
4 *1350:A *333:39 0.000223692
5 *1349:S *270:12 3.23857e-06
6 *254:46 *270:12 0.000194318
7 *268:37 *270:12 0
*RES
1 *1349:X *270:12 43.6343 
2 *270:12 *1350:A 40.5271 
*END

*D_NET *271 0.000908419
*CONN
*I *1352:A I *D sky130_fd_sc_hd__clkbuf_1
*I *1351:X O *D sky130_fd_sc_hd__mux2_1
*CAP
1 *1352:A 0.000291498
2 *1351:X 4.82822e-05
3 *271:8 0.00033978
4 *1352:A *335:63 5.47927e-05
5 *1490:D *1352:A 5.52639e-05
6 *158:135 *1352:A 7.09965e-06
7 *167:65 *271:8 8.62876e-05
8 *226:14 *271:8 2.5415e-05
*RES
1 *1351:X *271:8 39.2014 
2 *271:8 *1352:A 42.6814 
*END

*D_NET *272 0.000158316
*CONN
*I *1354:A I *D sky130_fd_sc_hd__clkbuf_1
*I *1353:X O *D sky130_fd_sc_hd__mux2_1
*CAP
1 *1354:A 7.9158e-05
2 *1353:X 7.9158e-05
*RES
1 *1353:X *1354:A 47.4707 
*END

*D_NET *273 0.000383266
*CONN
*I *1356:A I *D sky130_fd_sc_hd__clkbuf_1
*I *1355:X O *D sky130_fd_sc_hd__mux2_1
*CAP
1 *1356:A 0
2 *1355:X 0.000110875
3 *273:10 0.000110875
4 *273:10 *333:20 5.79559e-05
5 *273:10 *485:10 3.87236e-05
6 *163:45 *273:10 6.48356e-05
*RES
1 *1355:X *273:10 40.5271 
2 *273:10 *1356:A 38 
*END

*D_NET *274 0.000198814
*CONN
*I *1358:A I *D sky130_fd_sc_hd__clkbuf_1
*I *1357:X O *D sky130_fd_sc_hd__mux2_1
*CAP
1 *1358:A 4.52986e-05
2 *1357:X 4.52986e-05
3 *1358:A *425:18 4.47808e-05
4 *172:53 *1358:A 6.34357e-05
*RES
1 *1357:X *1358:A 47.4707 
*END

*D_NET *275 0.001128
*CONN
*I *1360:A I *D sky130_fd_sc_hd__clkbuf_1
*I *1359:X O *D sky130_fd_sc_hd__mux2_1
*CAP
1 *1360:A 0.000215655
2 *1359:X 4.52248e-05
3 *275:8 0.00026088
4 *1360:A *331:105 9.79925e-05
5 *1206:A2 *275:8 8.78864e-05
6 *168:48 *1360:A 1.21972e-05
7 *245:151 *1360:A 0.000322404
8 *245:151 *275:8 8.57577e-05
*RES
1 *1359:X *275:8 39.2014 
2 *275:8 *1360:A 43.3029 
*END

*D_NET *276 0.00143181
*CONN
*I *1362:A I *D sky130_fd_sc_hd__clkbuf_1
*I *1361:X O *D sky130_fd_sc_hd__mux2_1
*CAP
1 *1362:A 0.000411588
2 *1361:X 7.32991e-05
3 *276:8 0.000484887
4 *1362:A *1495:CLK 0.000279219
5 *1362:A *331:23 0.000100486
6 *276:8 *1194:A1 0
7 *276:8 *1503:CLK 4.6318e-06
8 *276:8 *331:12 3.75047e-05
9 *1495:D *1362:A 3.2277e-05
10 *268:67 *1362:A 7.91414e-06
*RES
1 *1361:X *276:8 39.2014 
2 *276:8 *1362:A 44.7114 
*END

*D_NET *277 0.00102452
*CONN
*I *1364:A I *D sky130_fd_sc_hd__clkbuf_4
*I *1363:X O *D sky130_fd_sc_hd__and3b_1
*CAP
1 *1364:A 0
2 *1363:X 0.00039592
3 *277:10 0.00039592
4 *158:45 *277:10 0.000133901
5 *258:8 *277:10 5.50106e-05
6 *258:40 *277:10 4.37697e-05
*RES
1 *1363:X *277:10 43.9864 
2 *277:10 *1364:A 38 
*END

*D_NET *278 0.023193
*CONN
*I *1371:S I *D sky130_fd_sc_hd__mux2_1
*I *1367:S I *D sky130_fd_sc_hd__mux2_1
*I *1373:S I *D sky130_fd_sc_hd__mux2_1
*I *1369:S I *D sky130_fd_sc_hd__mux2_1
*I *1365:S I *D sky130_fd_sc_hd__mux2_1
*I *1375:S I *D sky130_fd_sc_hd__mux2_1
*I *1377:S I *D sky130_fd_sc_hd__mux2_1
*I *1379:S I *D sky130_fd_sc_hd__mux2_1
*I *1364:X O *D sky130_fd_sc_hd__clkbuf_4
*CAP
1 *1371:S 0
2 *1367:S 0
3 *1373:S 0.000495855
4 *1369:S 0
5 *1365:S 0
6 *1375:S 0.00024293
7 *1377:S 0
8 *1379:S 0
9 *1364:X 0.000174185
10 *278:87 0.00069096
11 *278:75 0.00157067
12 *278:65 0.00159511
13 *278:61 0.000569663
14 *278:57 0.00203679
15 *278:55 0.00168667
16 *278:53 0.000560064
17 *278:31 0.00110799
18 *278:20 0.00108855
19 *278:8 0.000957737
20 *1373:S *1440:A1 3.53698e-05
21 *1373:S *319:106 5.5792e-05
22 *1373:S *319:120 0.000469042
23 *1373:S *334:104 2.95423e-05
24 *1373:S *458:10 1.57303e-05
25 *1375:S *1547:A 1.13812e-05
26 *278:8 *1437:A 0
27 *278:8 *298:12 0
28 *278:8 *299:14 6.70363e-05
29 *278:20 *1379:A0 9.82009e-05
30 *278:20 *319:12 0.000119969
31 *278:20 *319:27 0.000162598
32 *278:20 *435:50 0.000719343
33 *278:31 *1379:A0 1.56665e-05
34 *278:31 *1527:CLK 0.000182826
35 *278:31 *1541:A 9.65021e-05
36 *278:31 *332:10 8.82787e-05
37 *278:31 *360:27 6.28591e-05
38 *278:31 *435:50 0.000314473
39 *278:53 *1371:A0 4.98295e-05
40 *278:53 *1437:A 0
41 *278:53 *299:14 0.00102399
42 *278:57 *281:8 0
43 *278:57 *299:14 0.000167127
44 *278:57 *309:23 0.00140181
45 *278:57 *309:89 0.000175087
46 *278:57 *313:8 0.000191112
47 *278:57 *419:12 0
48 *278:57 *433:50 8.62876e-05
49 *278:57 *434:12 0
50 *278:57 *438:92 3.61602e-05
51 *278:61 *1367:A0 0.000228903
52 *278:65 *1440:A1 0.000132428
53 *278:75 *1369:A0 4.67488e-05
54 *278:87 *1369:A0 9.98069e-06
55 *278:87 *1439:A 0.000229583
56 *278:87 *336:97 0.000203518
57 *278:87 *355:8 0
58 *278:87 *419:27 0
59 *1190:A *278:53 0.000286999
60 *1201:A2 *1375:S 0.000218252
61 *1201:A2 *278:31 0.000446232
62 *1228:B1 *278:75 0.000768274
63 *1248:A2 *278:57 0
64 *124:8 *278:57 0.000379431
65 *127:8 *1375:S 0
66 *129:8 *278:87 4.64194e-05
67 *160:70 *278:53 0.000360607
68 *166:10 *278:57 0
69 *172:108 *278:57 0
70 *175:63 *1375:S 0.000201112
71 *175:86 *278:57 1.0092e-05
72 *176:87 *278:87 0.000449427
73 *176:95 *278:75 0.000269099
74 *214:10 *278:57 0.000165593
75 *218:8 *278:57 0
76 *225:8 *278:57 0.000169586
77 *258:40 *278:57 0.000117541
78 *261:10 *278:57 0
*RES
1 *1364:X *278:8 40.2579 
2 *278:8 *278:20 25.3571 
3 *278:20 *1379:S 23 
4 *278:20 *278:31 34.0986 
5 *278:31 *1377:S 38 
6 *278:31 *1375:S 43.7793 
7 *278:8 *278:53 30.3286 
8 *278:53 *278:55 15 
9 *278:55 *278:57 39.585 
10 *278:57 *278:61 21.815 
11 *278:61 *278:65 18.6664 
12 *278:65 *278:75 29.5 
13 *278:75 *278:87 45.4943 
14 *278:87 *1365:S 23 
15 *278:75 *1369:S 23 
16 *278:65 *1373:S 48.3986 
17 *278:61 *1367:S 23 
18 *278:53 *1371:S 23 
*END

*D_NET *279 0.00162551
*CONN
*I *1366:A I *D sky130_fd_sc_hd__clkbuf_1
*I *1365:X O *D sky130_fd_sc_hd__mux2_1
*CAP
1 *1366:A 7.70626e-05
2 *1365:X 0.000704774
3 *279:10 0.000781837
4 *279:10 *1365:A0 3.22879e-05
5 *279:10 *353:21 0
6 *97:8 *1366:A 2.95526e-05
*RES
1 *1365:X *279:10 48.3571 
2 *279:10 *1366:A 39.5743 
*END

*D_NET *280 0.000527345
*CONN
*I *1368:A I *D sky130_fd_sc_hd__clkbuf_1
*I *1367:X O *D sky130_fd_sc_hd__mux2_1
*CAP
1 *1368:A 0
2 *1367:X 0.000245345
3 *280:8 0.000245345
4 *98:10 *280:8 3.66555e-05
*RES
1 *1367:X *280:8 27.3293 
2 *280:8 *1368:A 23 
*END

*D_NET *281 0.000533154
*CONN
*I *1370:A I *D sky130_fd_sc_hd__clkbuf_1
*I *1369:X O *D sky130_fd_sc_hd__mux2_1
*CAP
1 *1370:A 4.13136e-05
2 *1369:X 9.32781e-05
3 *281:8 0.000134592
4 *281:8 *434:12 0.000165491
5 *175:86 *1370:A 9.84794e-05
6 *278:57 *281:8 0
*RES
1 *1369:X *281:8 40.2579 
2 *281:8 *1370:A 39.0979 
*END

*D_NET *282 0.000819839
*CONN
*I *1372:A I *D sky130_fd_sc_hd__clkbuf_1
*I *1371:X O *D sky130_fd_sc_hd__mux2_1
*CAP
1 *1372:A 0.000134594
2 *1371:X 6.19231e-05
3 *282:8 0.000196517
4 *1372:A *330:65 0.00014384
5 *1372:A *330:75 6.4554e-05
6 *282:8 *309:10 4.11274e-05
7 *1499:D *1372:A 0.000177284
*RES
1 *1371:X *282:8 39.2014 
2 *282:8 *1372:A 42.3293 
*END

*D_NET *283 0.00131975
*CONN
*I *1374:A I *D sky130_fd_sc_hd__clkbuf_1
*I *1373:X O *D sky130_fd_sc_hd__mux2_1
*CAP
1 *1374:A 0.000316042
2 *1373:X 0.000203478
3 *283:8 0.00051952
4 *1374:A *425:67 3.3577e-05
5 *1374:A *437:122 5.50049e-05
6 *1374:A *437:135 7.38076e-05
7 *283:8 *1529:CLK 0
8 *283:8 *425:63 8.26672e-05
9 *283:8 *432:8 3.56537e-05
10 *283:8 *437:122 0
11 *130:8 *283:8 0
*RES
1 *1373:X *283:8 42.3707 
2 *283:8 *1374:A 43.4064 
*END

*D_NET *284 0.000531402
*CONN
*I *1376:A I *D sky130_fd_sc_hd__clkbuf_1
*I *1375:X O *D sky130_fd_sc_hd__mux2_1
*CAP
1 *1376:A 0.000124784
2 *1375:X 0.000124784
3 *1376:A *1448:A1 0.000269396
4 *1376:A *1448:S 1.24376e-05
*RES
1 *1375:X *1376:A 49.3764 
*END

*D_NET *285 0.000656626
*CONN
*I *1378:A I *D sky130_fd_sc_hd__clkbuf_1
*I *1377:X O *D sky130_fd_sc_hd__mux2_1
*CAP
1 *1378:A 0
2 *1377:X 0.000175814
3 *285:10 0.000175814
4 *285:10 *359:16 0.000135358
5 *285:10 *477:118 0.000169639
*RES
1 *1377:X *285:10 27.35 
2 *285:10 *1378:A 23 
*END

*D_NET *286 0.0011835
*CONN
*I *1380:A I *D sky130_fd_sc_hd__clkbuf_1
*I *1379:X O *D sky130_fd_sc_hd__mux2_1
*CAP
1 *1380:A 0.000119419
2 *1379:X 0.000272324
3 *286:10 0.000391743
4 *286:10 *1437:A 0
5 *286:10 *1503:CLK 0.000140949
6 *286:10 *328:48 2.21344e-05
7 *286:10 *435:50 9.84851e-05
8 *1194:A2 *1380:A 0
9 *158:45 *1380:A 0.000138444
*RES
1 *1379:X *286:10 43.1164 
2 *286:10 *1380:A 40.4236 
*END

*D_NET *287 0.000245099
*CONN
*I *1382:A I *D sky130_fd_sc_hd__clkbuf_4
*I *1381:X O *D sky130_fd_sc_hd__or3b_1
*CAP
1 *1382:A 9.81267e-05
2 *1381:X 9.81267e-05
3 *1382:A *1381:A 6.17437e-06
4 *1382:A *329:62 1.03836e-05
5 *1382:A *516:20 0
6 *1164:A *1382:A 3.22879e-05
*RES
1 *1381:X *1382:A 47.595 
*END

*D_NET *288 0.0330283
*CONN
*I *1389:S I *D sky130_fd_sc_hd__mux2_1
*I *1391:S I *D sky130_fd_sc_hd__mux2_1
*I *1385:S I *D sky130_fd_sc_hd__mux2_1
*I *1383:S I *D sky130_fd_sc_hd__mux2_1
*I *1393:S I *D sky130_fd_sc_hd__mux2_1
*I *1387:S I *D sky130_fd_sc_hd__mux2_1
*I *1397:S I *D sky130_fd_sc_hd__mux2_1
*I *1395:S I *D sky130_fd_sc_hd__mux2_1
*I *1382:X O *D sky130_fd_sc_hd__clkbuf_4
*CAP
1 *1389:S 0
2 *1391:S 0.000429791
3 *1385:S 0
4 *1383:S 0.000188141
5 *1393:S 0
6 *1387:S 3.14615e-05
7 *1397:S 1.77204e-05
8 *1395:S 0.000394445
9 *1382:X 4.88151e-05
10 *288:121 0.000798045
11 *288:111 0.00221296
12 *288:100 0.00125823
13 *288:98 0.00185983
14 *288:90 0.00254646
15 *288:78 0.000686626
16 *288:76 0.000868578
17 *288:68 0.00049012
18 *288:64 0.00156398
19 *288:38 0.00159453
20 *288:28 0.00264636
21 *288:8 0.00302545
22 *1383:S *438:104 0
23 *1383:S *500:10 5.80848e-05
24 *1387:S *363:14 1.9054e-05
25 *1391:S *1251:A1 8.60703e-05
26 *1391:S *362:10 6.07611e-06
27 *1391:S *455:33 1.19692e-05
28 *1395:S *1396:A 0.000230604
29 *1395:S *1397:A1 0.000210879
30 *1395:S *426:39 0.000906887
31 *1395:S *477:36 9.84794e-05
32 *1397:S *1397:A1 5.79559e-05
33 *1397:S *426:39 0.000100069
34 *288:28 *1478:CLK 5.82411e-05
35 *288:28 *402:29 5.40752e-05
36 *288:28 *499:8 0
37 *288:28 *516:6 3.40181e-05
38 *288:28 *516:20 0.000261223
39 *288:28 *516:29 0
40 *288:38 *1462:CLK 3.46673e-05
41 *288:38 *331:48 5.26575e-05
42 *288:38 *426:39 5.3304e-05
43 *288:38 *488:90 0.000136486
44 *288:64 *1152:B 0.000297536
45 *288:64 *1478:CLK 4.4382e-05
46 *288:64 *329:41 7.20415e-05
47 *288:64 *438:10 0.000191157
48 *288:64 *438:23 0.000179702
49 *288:64 *499:8 0
50 *288:64 *512:23 0.000835512
51 *288:64 *512:44 0.000243201
52 *288:64 *512:48 6.94612e-05
53 *288:64 *512:59 0.000229159
54 *288:68 *444:46 0.000169595
55 *288:76 *1390:A 0
56 *288:76 *290:16 0
57 *288:76 *362:10 6.93449e-05
58 *288:76 *444:31 1.32314e-05
59 *288:76 *444:46 0.00010018
60 *288:90 *1385:A1 2.98648e-05
61 *288:90 *1580:A 0.000166072
62 *288:90 *394:12 6.38845e-05
63 *288:90 *422:66 7.84439e-05
64 *288:98 *1456:CLK 0.000151445
65 *288:98 *1506:CLK 0.000245703
66 *288:98 *333:91 0.000131615
67 *288:98 *333:98 0.000199867
68 *288:98 *363:8 3.88629e-05
69 *288:111 *1387:A1 2.83509e-05
70 *288:111 *363:14 2.02872e-05
71 *288:121 *315:10 0
72 *288:121 *319:66 1.0092e-05
73 *288:121 *335:85 5.67107e-05
74 *288:121 *350:27 8.16356e-05
75 used[1] *1395:S 0.000187015
76 *1164:A *288:8 2.93845e-05
77 *1170:B *288:28 6.57815e-06
78 *1321:A *288:28 0.000143441
79 *1462:RESET_B *288:38 1.12709e-05
80 *1481:D *288:98 0.000100665
81 *1506:D *288:98 1.00591e-05
82 *1511:D *288:38 0.000113269
83 *37:6 *288:28 8.46456e-05
84 *37:6 *288:38 1.14876e-05
85 *51:10 *288:28 9.24795e-06
86 *53:8 *288:28 6.16531e-05
87 *105:14 *1383:S 4.22185e-05
88 *142:128 *288:90 0
89 *144:54 *288:64 0.000268142
90 *147:8 *288:64 0
91 *152:72 *288:64 5.6882e-05
92 *158:12 *288:64 0.000665666
93 *158:102 *288:90 6.0839e-05
94 *167:10 *288:64 0
95 *167:38 *288:98 6.17437e-06
96 *167:84 *1383:S 0
97 *167:101 *288:121 0.00010096
98 *168:8 *288:64 0.000112541
99 *175:74 *288:121 0.000717007
100 *194:16 *288:121 0
101 *195:10 *288:121 1.0092e-05
102 *203:12 *1391:S 0
103 *211:16 *288:98 0.000164392
104 *219:24 *288:68 9.91798e-05
105 *219:24 *288:76 5.70419e-05
106 *242:14 *1391:S 0.000137796
107 *242:14 *288:64 0.00012047
108 *242:14 *288:76 0.000152963
109 *244:8 *288:28 0.000448458
110 *244:21 *288:28 0
111 *244:112 *288:28 4.72245e-05
112 *245:81 *288:98 3.40187e-05
113 *245:85 *288:111 0.000740224
114 *245:102 *288:111 0.000737534
115 *268:22 *288:64 0.000215106
116 *268:101 *1383:S 0.000270218
117 *268:101 *288:121 4.47533e-05
*RES
1 *1382:X *288:8 38.6214 
2 *288:8 *288:28 40.7893 
3 *288:28 *288:38 46.965 
4 *288:38 *1395:S 37.3757 
5 *288:38 *1397:S 24.0979 
6 *288:8 *288:64 41.4079 
7 *288:64 *288:68 17.0507 
8 *288:68 *288:76 24.4871 
9 *288:76 *288:78 15 
10 *288:78 *288:90 40.295 
11 *288:90 *288:98 41.1207 
12 *288:98 *288:100 15 
13 *288:100 *1387:S 23.8493 
14 *288:100 *288:111 32.7729 
15 *288:111 *288:121 45.7636 
16 *288:121 *1393:S 38 
17 *288:111 *1383:S 42.0186 
18 *288:78 *1385:S 23 
19 *288:76 *1391:S 46.9486 
20 *288:68 *1389:S 23 
*END

*D_NET *289 0.000600045
*CONN
*I *1384:A I *D sky130_fd_sc_hd__clkbuf_1
*I *1383:X O *D sky130_fd_sc_hd__mux2_1
*CAP
1 *1384:A 6.37657e-05
2 *1383:X 0.000162201
3 *289:10 0.000225967
4 *1384:A *345:20 0
5 *1384:A *438:96 5.79559e-05
6 *289:10 *319:84 3.76761e-05
7 *1348:A *289:10 5.24794e-05
*RES
1 *1383:X *289:10 40.2993 
2 *289:10 *1384:A 39.4707 
*END

*D_NET *290 0.000628206
*CONN
*I *1386:A I *D sky130_fd_sc_hd__clkbuf_1
*I *1385:X O *D sky130_fd_sc_hd__mux2_1
*CAP
1 *1386:A 0
2 *1385:X 0.000314103
3 *290:16 0.000314103
4 *106:10 *290:16 0
5 *288:76 *290:16 0
*RES
1 *1385:X *290:16 44.2557 
2 *290:16 *1386:A 38 
*END

*D_NET *291 0.000166549
*CONN
*I *1388:A I *D sky130_fd_sc_hd__clkbuf_1
*I *1387:X O *D sky130_fd_sc_hd__mux2_1
*CAP
1 *1388:A 8.32745e-05
2 *1387:X 8.32745e-05
*RES
1 *1387:X *1388:A 47.4707 
*END

*D_NET *292 0.000150926
*CONN
*I *1390:A I *D sky130_fd_sc_hd__clkbuf_1
*I *1389:X O *D sky130_fd_sc_hd__mux2_1
*CAP
1 *1390:A 6.39486e-05
2 *1389:X 6.39486e-05
3 *219:24 *1390:A 2.30292e-05
4 *288:76 *1390:A 0
*RES
1 *1389:X *1390:A 47.4707 
*END

*D_NET *293 0.000199653
*CONN
*I *1392:A I *D sky130_fd_sc_hd__clkbuf_1
*I *1391:X O *D sky130_fd_sc_hd__mux2_1
*CAP
1 *1392:A 7.08483e-05
2 *1391:X 7.08483e-05
3 *1392:A *455:25 5.79559e-05
*RES
1 *1391:X *1392:A 47.4707 
*END

*D_NET *294 0.0020499
*CONN
*I *1394:A I *D sky130_fd_sc_hd__clkbuf_1
*I *1393:X O *D sky130_fd_sc_hd__mux2_1
*CAP
1 *1394:A 0.000266159
2 *1393:X 0.000252482
3 *294:10 0.000518641
4 *1394:A *1544:A 0.000100069
5 *294:10 *319:66 7.45744e-05
6 *294:10 *335:12 3.62323e-05
7 *294:10 *335:85 3.82956e-05
8 *294:10 *350:14 0.000216721
9 *110:10 *294:10 0.000136486
10 *172:53 *294:10 9.75779e-05
11 *227:10 *1394:A 0.000312662
*RES
1 *1393:X *294:10 44.1729 
2 *294:10 *1394:A 44.3386 
*END

*D_NET *295 0.000482015
*CONN
*I *1396:A I *D sky130_fd_sc_hd__clkbuf_1
*I *1395:X O *D sky130_fd_sc_hd__mux2_1
*CAP
1 *1396:A 0.000125705
2 *1395:X 0.000125705
3 *1395:S *1396:A 0.000230604
*RES
1 *1395:X *1396:A 49.3764 
*END

*D_NET *296 0.000914233
*CONN
*I *1398:A I *D sky130_fd_sc_hd__clkbuf_1
*I *1397:X O *D sky130_fd_sc_hd__mux2_1
*CAP
1 *1398:A 0
2 *1397:X 0.000401918
3 *296:10 0.000401918
4 *296:10 *426:39 0.000110397
5 *63:10 *296:10 0
*RES
1 *1397:X *296:10 44.2143 
2 *296:10 *1398:A 38 
*END

*D_NET *297 0.00372196
*CONN
*I *1418:C I *D sky130_fd_sc_hd__and3b_1
*I *1436:B I *D sky130_fd_sc_hd__and3b_1
*I *1400:B I *D sky130_fd_sc_hd__and2_1
*I *1399:X O *D sky130_fd_sc_hd__and4_1
*CAP
1 *1418:C 0
2 *1436:B 2.00578e-05
3 *1400:B 2.39561e-05
4 *1399:X 0.000556927
5 *297:42 0.000264449
6 *297:25 0.000467697
7 *297:14 0.000207146
8 *297:12 0.000556927
9 *297:12 *1399:B 4.43801e-05
10 *297:12 *429:16 7.99094e-05
11 *297:12 *514:59 0.000346141
12 *297:12 *514:70 0.000125413
13 *297:12 *514:83 5.01986e-05
14 *297:25 *298:12 0.0002263
15 *297:42 *298:12 0.000125213
16 *297:42 *318:14 0.000185434
17 *297:42 *514:115 0.00014786
18 *297:42 *515:115 5.94125e-05
19 *1399:C *297:12 4.05745e-05
20 *1399:D *297:12 2.37172e-05
21 *1400:A *1400:B 5.50049e-05
22 *1400:A *297:25 1.63023e-05
23 *140:8 *297:12 8.69671e-05
24 *140:21 *297:12 1.19692e-05
25 *258:40 *297:42 0
*RES
1 *1399:X *297:12 49.2479 
2 *297:12 *297:14 15 
3 *297:14 *1400:B 23.6214 
4 *297:14 *297:25 3.85286 
5 *297:25 *1436:B 23.4971 
6 *297:25 *297:42 35.1786 
7 *297:42 *1418:C 23 
*END

*D_NET *298 0.00181011
*CONN
*I *1401:A I *D sky130_fd_sc_hd__clkbuf_4
*I *1400:X O *D sky130_fd_sc_hd__and2_1
*CAP
1 *1401:A 0
2 *1400:X 0.000346415
3 *298:12 0.000346415
4 *298:12 *1418:B 2.4754e-05
5 *298:12 *299:14 2.22183e-05
6 *298:12 *308:10 2.93747e-05
7 *298:12 *318:14 0.000149765
8 *298:12 *514:100 5.3304e-05
9 *298:12 *514:115 6.82514e-05
10 *298:12 *515:102 0.000105269
11 *298:12 *515:115 5.3304e-05
12 *1400:A *298:12 9.30054e-05
13 *258:40 *298:12 0.000166522
14 *278:8 *298:12 0
15 *297:25 *298:12 0.0002263
16 *297:42 *298:12 0.000125213
*RES
1 *1400:X *298:12 48.3986 
2 *298:12 *1401:A 38 
*END

*D_NET *299 0.0313952
*CONN
*I *1408:S I *D sky130_fd_sc_hd__mux2_1
*I *1402:S I *D sky130_fd_sc_hd__mux2_1
*I *1412:S I *D sky130_fd_sc_hd__mux2_1
*I *1416:S I *D sky130_fd_sc_hd__mux2_1
*I *1414:S I *D sky130_fd_sc_hd__mux2_1
*I *1406:S I *D sky130_fd_sc_hd__mux2_1
*I *1404:S I *D sky130_fd_sc_hd__mux2_1
*I *1410:S I *D sky130_fd_sc_hd__mux2_1
*I *1401:X O *D sky130_fd_sc_hd__clkbuf_4
*CAP
1 *1408:S 0
2 *1402:S 0.000258836
3 *1412:S 4.88689e-05
4 *1416:S 0
5 *1414:S 0
6 *1406:S 2.52923e-05
7 *1404:S 0
8 *1410:S 0.000147631
9 *1401:X 0
10 *299:150 0.000540196
11 *299:135 0.000611445
12 *299:129 0.000823751
13 *299:109 0.00211674
14 *299:97 0.00237541
15 *299:80 0.00181891
16 *299:59 0.000235601
17 *299:46 0.00135598
18 *299:34 0.00127092
19 *299:22 0.00247883
20 *299:14 0.00224017
21 *299:6 0.00105193
22 *1402:S *401:36 1.12863e-05
23 *1402:S *401:44 0.000150307
24 *1410:S *1410:A0 0.00010018
25 *1410:S *1598:A 9.84794e-05
26 *1412:S *466:43 0.000188934
27 *299:14 *1426:A1 0.000115451
28 *299:22 *1467:CLK 2.12347e-06
29 *299:22 *1523:CLK 0.000178315
30 *299:22 *309:23 0
31 *299:22 *335:40 0.00010144
32 *299:22 *335:63 0.000155358
33 *299:22 *336:12 3.81554e-05
34 *299:22 *340:10 8.62876e-05
35 *299:22 *433:63 8.79994e-05
36 *299:22 *438:69 0
37 *299:22 *444:81 0.000166513
38 *299:22 *444:83 1.14452e-05
39 *299:34 *1467:CLK 2.05503e-05
40 *299:34 *1521:CLK 5.50049e-05
41 *299:46 *1428:A0 9.5877e-05
42 *299:46 *1429:A 0.000109464
43 *299:46 *1598:A 5.3304e-05
44 *299:46 *309:105 0.00014226
45 *299:46 *378:10 0.000186733
46 *299:46 *455:74 0.000137651
47 *299:59 *1226:A 2.96154e-05
48 *299:59 *1253:A 0
49 *299:59 *1598:A 6.26298e-05
50 *299:59 *334:21 0.000239243
51 *299:59 *334:86 0.000181943
52 *299:59 *422:14 2.76611e-06
53 *299:59 *455:39 0
54 *299:80 *1425:A 0.000275599
55 *299:80 *1467:CLK 9.36747e-06
56 *299:80 *302:10 0.000102389
57 *299:80 *309:37 0.000885428
58 *299:80 *312:8 5.58152e-06
59 *299:80 *336:55 4.95487e-06
60 *299:97 *309:37 0.000719013
61 *299:97 *319:84 6.34104e-05
62 *299:109 *1480:CLK 0.00015954
63 *299:109 *1485:CLK 0.000190301
64 *299:109 *332:86 0.000210668
65 *299:109 *398:12 0
66 *299:109 *464:10 7.80251e-05
67 *299:109 *466:35 0
68 *299:129 *1579:A 0.000188927
69 *299:129 *332:86 0.000166826
70 *299:135 *477:83 2.31622e-05
71 *299:150 *1414:A0 0.000137361
72 *299:150 *1416:A0 7.28308e-05
73 *299:150 *413:12 0
74 *299:150 *477:66 2.46906e-05
75 *299:150 *477:83 3.18142e-05
76 *1198:A1 *299:129 0.000172019
77 *1218:A2 *1412:S 7.87243e-05
78 *1236:A2 *299:14 0.000136841
79 *1245:A2 *299:80 0
80 *1521:D *299:46 2.15253e-06
81 *5:21 *299:22 0
82 *64:10 *299:129 2.95423e-05
83 *122:8 *299:34 1.01436e-05
84 *123:14 *299:80 0.000108059
85 *160:70 *299:14 6.47893e-05
86 *160:113 *299:129 0.000245626
87 *160:150 *299:109 0.00161677
88 *160:177 *299:80 0.000726378
89 *160:177 *299:97 0.000245681
90 *163:66 *299:22 2.12147e-05
91 *163:70 *299:34 5.12254e-05
92 *163:80 *299:22 4.90891e-05
93 *163:98 *299:109 0
94 *165:139 *299:129 6.38342e-05
95 *166:10 *299:14 7.75329e-06
96 *166:106 *299:109 0.000111042
97 *176:24 *299:14 2.89294e-05
98 *183:10 *299:129 2.81066e-05
99 *191:18 *299:109 6.32263e-05
100 *207:12 *299:22 0
101 *211:16 *299:22 0
102 *211:16 *299:80 0
103 *212:10 *299:34 5.3304e-05
104 *216:16 *299:80 7.03234e-05
105 *216:16 *299:97 2.30292e-05
106 *219:12 *299:22 0.00124478
107 *226:14 *299:22 0
108 *226:14 *299:34 4.82745e-05
109 *230:10 *299:109 6.33511e-05
110 *246:10 *299:109 1.98473e-05
111 *254:82 *299:34 7.44161e-06
112 *254:82 *299:46 7.37292e-05
113 *254:105 *1402:S 0.000119019
114 *254:105 *299:97 0.000310298
115 *254:127 *299:129 0
116 *254:127 *299:150 0.000623521
117 *258:40 *299:14 0
118 *258:48 *299:22 1.94418e-05
119 *258:104 *299:109 1.76043e-05
120 *278:8 *299:14 6.70363e-05
121 *278:53 *299:14 0.00102399
122 *278:57 *299:14 0.000167127
123 *298:12 *299:14 2.22183e-05
*RES
1 *1401:X *299:6 38 
2 *299:6 *299:14 38.4071 
3 *299:14 *299:22 44.7871 
4 *299:22 *299:34 35.0957 
5 *299:34 *299:46 32.98 
6 *299:46 *1410:S 26.48 
7 *299:46 *299:59 35.7793 
8 *299:59 *1404:S 23 
9 *299:22 *299:80 41.8141 
10 *299:80 *1406:S 23.4971 
11 *299:80 *299:97 27.1071 
12 *299:97 *299:109 40.0346 
13 *299:109 *299:129 45.8568 
14 *299:129 *299:135 16.4707 
15 *299:135 *1414:S 23 
16 *299:135 *299:150 42.8221 
17 *299:150 *1416:S 23 
18 *299:109 *1412:S 40.0507 
19 *299:97 *1402:S 48.5671 
20 *299:14 *1408:S 23 
*END

*D_NET *300 0.000327631
*CONN
*I *1403:A I *D sky130_fd_sc_hd__clkbuf_1
*I *1402:X O *D sky130_fd_sc_hd__mux2_1
*CAP
1 *1403:A 0
2 *1402:X 9.77139e-05
3 *300:8 9.77139e-05
4 *300:8 *377:8 0
5 *231:8 *300:8 6.53342e-05
6 *234:10 *300:8 6.6869e-05
*RES
1 *1402:X *300:8 40.61 
2 *300:8 *1403:A 38 
*END

*D_NET *301 0.000994427
*CONN
*I *1405:A I *D sky130_fd_sc_hd__clkbuf_1
*I *1404:X O *D sky130_fd_sc_hd__mux2_1
*CAP
1 *1405:A 0
2 *1404:X 0.000466874
3 *301:10 0.000466874
4 *301:10 *370:10 1.73399e-05
5 *114:8 *301:10 4.334e-05
6 *242:14 *301:10 0
*RES
1 *1404:X *301:10 44.815 
2 *301:10 *1405:A 38 
*END

*D_NET *302 0.00154964
*CONN
*I *1407:A I *D sky130_fd_sc_hd__clkbuf_1
*I *1406:X O *D sky130_fd_sc_hd__mux2_1
*CAP
1 *1407:A 3.41786e-05
2 *1406:X 0.000445243
3 *302:10 0.000479422
4 *302:10 *336:55 0
5 *302:10 *336:70 0.00013449
6 *302:10 *336:87 0.000206558
7 *302:10 *403:10 9.17287e-05
8 *302:10 *484:8 0
9 *175:78 *1407:A 5.56279e-05
10 *299:80 *302:10 0.000102389
*RES
1 *1406:X *302:10 46.6379 
2 *302:10 *1407:A 38.6214 
*END

*D_NET *303 0.0011177
*CONN
*I *1409:A I *D sky130_fd_sc_hd__clkbuf_1
*I *1408:X O *D sky130_fd_sc_hd__mux2_1
*CAP
1 *1409:A 0.000190064
2 *1408:X 0.00025432
3 *303:10 0.000444384
4 *1409:A *372:12 0
5 *1336:A *1409:A 5.79559e-05
6 *84:10 *1409:A 5.68958e-05
7 *262:8 *303:10 0.000114083
*RES
1 *1408:X *303:10 42.0807 
2 *303:10 *1409:A 41.8736 
*END

*D_NET *304 0.000158879
*CONN
*I *1411:A I *D sky130_fd_sc_hd__clkbuf_1
*I *1410:X O *D sky130_fd_sc_hd__mux2_1
*CAP
1 *1411:A 7.94396e-05
2 *1410:X 7.94396e-05
*RES
1 *1410:X *1411:A 47.4707 
*END

*D_NET *305 0.00171381
*CONN
*I *1413:A I *D sky130_fd_sc_hd__clkbuf_1
*I *1412:X O *D sky130_fd_sc_hd__mux2_1
*CAP
1 *1413:A 6.25751e-05
2 *1412:X 0.000408676
3 *305:10 0.000471251
4 *1413:A *425:28 0.000143543
5 *305:10 *1412:A1 5.37348e-06
6 *305:10 *466:35 0.000369584
7 *305:10 *506:14 8.62876e-05
8 *118:8 *305:10 0.000166522
9 *191:8 *305:10 0
*RES
1 *1412:X *305:10 45.6021 
2 *305:10 *1413:A 39.5743 
*END

*D_NET *306 0.00121778
*CONN
*I *1415:A I *D sky130_fd_sc_hd__clkbuf_1
*I *1414:X O *D sky130_fd_sc_hd__mux2_1
*CAP
1 *1415:A 0
2 *1414:X 0.000327331
3 *306:10 0.000327331
4 *306:10 *1208:A 4.60803e-05
5 *306:10 *1270:A2 4.41821e-06
6 *306:10 *1414:A0 3.26241e-05
7 *306:10 *1609:A 0.000108786
8 *306:10 *413:12 0.000324503
9 *306:10 *431:16 4.67055e-05
10 *306:10 *499:63 0
*RES
1 *1414:X *306:10 45.1257 
2 *306:10 *1415:A 38 
*END

*D_NET *307 0.000480566
*CONN
*I *1417:A I *D sky130_fd_sc_hd__clkbuf_1
*I *1416:X O *D sky130_fd_sc_hd__mux2_1
*CAP
1 *1417:A 6.5888e-05
2 *1416:X 9.71886e-05
3 *307:8 0.000163077
4 *307:8 *1519:CLK 0.000141975
5 *1519:D *1417:A 1.24376e-05
6 *186:14 *307:8 0
*RES
1 *1416:X *307:8 40.2579 
2 *307:8 *1417:A 39.0979 
*END

*D_NET *308 0.00085493
*CONN
*I *1419:A I *D sky130_fd_sc_hd__clkbuf_4
*I *1418:X O *D sky130_fd_sc_hd__and3b_1
*CAP
1 *1419:A 0
2 *1418:X 0.000211808
3 *308:10 0.000211808
4 *308:10 *319:12 0
5 *308:10 *514:121 7.81176e-05
6 *258:40 *308:10 0.000323822
7 *298:12 *308:10 2.93747e-05
*RES
1 *1418:X *308:10 42.9921 
2 *308:10 *1419:A 38 
*END

*D_NET *309 0.025622
*CONN
*I *1424:S I *D sky130_fd_sc_hd__mux2_1
*I *1422:S I *D sky130_fd_sc_hd__mux2_1
*I *1428:S I *D sky130_fd_sc_hd__mux2_1
*I *1430:S I *D sky130_fd_sc_hd__mux2_1
*I *1432:S I *D sky130_fd_sc_hd__mux2_1
*I *1434:S I *D sky130_fd_sc_hd__mux2_1
*I *1420:S I *D sky130_fd_sc_hd__mux2_1
*I *1426:S I *D sky130_fd_sc_hd__mux2_1
*I *1419:X O *D sky130_fd_sc_hd__clkbuf_4
*CAP
1 *1424:S 0.000253011
2 *1422:S 3.79905e-05
3 *1428:S 0
4 *1430:S 0
5 *1432:S 1.38986e-05
6 *1434:S 0
7 *1420:S 1.67991e-05
8 *1426:S 0
9 *1419:X 4.00127e-05
10 *309:105 0.000284417
11 *309:95 0.00100742
12 *309:89 0.00108192
13 *309:62 0.000668967
14 *309:56 0.00107037
15 *309:54 0.00150508
16 *309:37 0.0021721
17 *309:23 0.00267967
18 *309:10 0.0020474
19 *309:8 0.000589351
20 *1422:S *1422:A1 5.90675e-06
21 *1424:S *419:27 7.21554e-05
22 *1432:S *1432:A0 5.58003e-05
23 *1432:S *477:83 1.61385e-05
24 *1432:S *477:100 7.61229e-06
25 *309:8 *329:109 3.22879e-05
26 *309:10 *1444:A1 0
27 *309:10 *319:12 0
28 *309:10 *444:83 0
29 *309:10 *447:8 8.57577e-05
30 *309:23 *1242:B2 2.31304e-05
31 *309:23 *1523:CLK 0
32 *309:23 *1577:A 6.33614e-05
33 *309:23 *335:40 0
34 *309:23 *363:24 0.000235102
35 *309:37 *401:54 1.88129e-05
36 *309:54 *401:44 1.21972e-05
37 *309:54 *401:82 0.000159276
38 *309:54 *472:10 0.000165583
39 *309:62 *384:8 0
40 *309:62 *477:83 2.34077e-05
41 *309:95 *1422:A1 5.47983e-06
42 *309:95 *1423:A 0.000109152
43 *309:95 *422:92 2.81066e-05
44 *309:95 *422:105 0.000474566
45 *309:105 *378:10 3.3746e-05
46 *309:105 *422:44 0
47 *309:105 *455:74 5.3304e-05
48 *1202:A2 *309:62 0
49 *1245:B1 *309:37 7.73389e-05
50 *1245:B1 *309:54 7.88828e-05
51 *1254:A1 *309:95 5.3304e-05
52 *1254:A1 *309:105 3.47781e-05
53 *1261:B1 *309:54 4.41158e-05
54 *1467:D *309:95 0.000102093
55 *42:8 *309:89 0
56 *55:10 *309:54 0.000368698
57 *124:8 *309:23 0.000123998
58 *127:8 *309:56 0
59 *128:10 *309:62 0
60 *160:39 *309:10 0
61 *160:150 *309:54 0
62 *160:177 *309:37 0.000144215
63 *160:177 *309:95 0.000130134
64 *165:90 *309:54 0.000946303
65 *165:171 *1422:S 0
66 *166:118 *309:54 0.000518615
67 *172:22 *309:10 2.56091e-05
68 *172:66 *309:54 7.75329e-06
69 *172:66 *309:56 0.00014182
70 *178:8 *309:62 0.00035701
71 *185:18 *309:56 6.12479e-05
72 *192:12 *309:54 0.000446073
73 *192:12 *309:56 1.14452e-05
74 *207:12 *309:10 0.000140958
75 *207:12 *309:23 2.55642e-05
76 *210:12 *309:23 0.000140958
77 *211:16 *309:23 3.75401e-06
78 *211:16 *309:89 0
79 *226:14 *309:105 0
80 *234:10 *309:54 5.75941e-05
81 *245:81 *309:23 4.95928e-05
82 *254:82 *309:105 0.000164502
83 *254:105 *309:37 0.00169895
84 *258:40 *309:10 0.000961534
85 *258:40 *309:23 0.000191157
86 *278:57 *309:23 0.00140181
87 *278:57 *309:89 0.000175087
88 *282:8 *309:10 4.11274e-05
89 *299:22 *309:23 0
90 *299:46 *309:105 0.00014226
91 *299:80 *309:37 0.000885428
92 *299:97 *309:37 0.000719013
*RES
1 *1419:X *309:8 38.6214 
2 *309:8 *309:10 13.1743 
3 *309:10 *1426:S 38 
4 *309:10 *309:23 30.5639 
5 *309:23 *309:37 37.9222 
6 *309:37 *1420:S 23.4971 
7 *309:37 *309:54 45.7814 
8 *309:54 *309:56 8.24429 
9 *309:56 *309:62 27.035 
10 *309:62 *1434:S 23 
11 *309:56 *1432:S 38.6214 
12 *309:54 *1430:S 38 
13 *309:23 *309:89 17.9311 
14 *309:89 *309:95 14.9557 
15 *309:95 *309:105 36.235 
16 *309:105 *1428:S 23 
17 *309:95 *1422:S 23.8493 
18 *309:89 *1424:S 27.4329 
*END

*D_NET *310 0.000774254
*CONN
*I *1421:A I *D sky130_fd_sc_hd__clkbuf_1
*I *1420:X O *D sky130_fd_sc_hd__mux2_1
*CAP
1 *1421:A 0
2 *1420:X 0.000294419
3 *310:10 0.000294419
4 *310:10 *377:8 0
5 *310:10 *479:8 0
6 *1245:B1 *310:10 3.22879e-05
7 *121:8 *310:10 8.16356e-05
8 *175:74 *310:10 6.2873e-05
9 *232:16 *310:10 8.62073e-06
*RES
1 *1420:X *310:10 43.6964 
2 *310:10 *1421:A 38 
*END

*D_NET *311 0.000285251
*CONN
*I *1423:A I *D sky130_fd_sc_hd__clkbuf_1
*I *1422:X O *D sky130_fd_sc_hd__mux2_1
*CAP
1 *1423:A 8.80499e-05
2 *1422:X 8.80499e-05
3 *1467:D *1423:A 0
4 *309:95 *1423:A 0.000109152
*RES
1 *1422:X *1423:A 47.9471 
*END

*D_NET *312 0.0010803
*CONN
*I *1425:A I *D sky130_fd_sc_hd__clkbuf_1
*I *1424:X O *D sky130_fd_sc_hd__mux2_1
*CAP
1 *1425:A 0.000157575
2 *1424:X 7.4809e-05
3 *312:8 0.000232384
4 *1425:A *339:31 0.00023274
5 *123:14 *312:8 0
6 *216:16 *1425:A 6.34697e-05
7 *217:12 *312:8 3.81457e-05
8 *299:80 *1425:A 0.000275599
9 *299:80 *312:8 5.58152e-06
*RES
1 *1424:X *312:8 39.2014 
2 *312:8 *1425:A 43.2821 
*END

*D_NET *313 0.00132254
*CONN
*I *1427:A I *D sky130_fd_sc_hd__clkbuf_1
*I *1426:X O *D sky130_fd_sc_hd__mux2_1
*CAP
1 *1427:A 4.996e-05
2 *1426:X 0.000204848
3 *313:8 0.000254808
4 *1427:A *335:27 5.41288e-05
5 *166:10 *313:8 0.000567678
6 *278:57 *313:8 0.000191112
*RES
1 *1426:X *313:8 45.54 
2 *313:8 *1427:A 39.0979 
*END

*D_NET *314 0.000275676
*CONN
*I *1429:A I *D sky130_fd_sc_hd__clkbuf_1
*I *1428:X O *D sky130_fd_sc_hd__mux2_1
*CAP
1 *1429:A 8.31062e-05
2 *1428:X 8.31062e-05
3 *299:46 *1429:A 0.000109464
*RES
1 *1428:X *1429:A 47.9471 
*END

*D_NET *315 0.000891135
*CONN
*I *1431:A I *D sky130_fd_sc_hd__clkbuf_1
*I *1430:X O *D sky130_fd_sc_hd__mux2_1
*CAP
1 *1431:A 0
2 *1430:X 0.000281442
3 *315:10 0.000281442
4 *315:10 *1219:A1 0
5 *126:8 *315:10 9.28842e-05
6 *165:82 *315:10 5.67058e-05
7 *165:90 *315:10 0.000178661
8 *175:74 *315:10 0
9 *288:121 *315:10 0
*RES
1 *1430:X *315:10 43.6964 
2 *315:10 *1431:A 38 
*END

*D_NET *316 0.000178427
*CONN
*I *1433:A I *D sky130_fd_sc_hd__clkbuf_1
*I *1432:X O *D sky130_fd_sc_hd__mux2_1
*CAP
1 *1433:A 5.16633e-05
2 *1432:X 5.16633e-05
3 *1433:A *477:100 7.51007e-05
*RES
1 *1432:X *1433:A 47.4707 
*END

*D_NET *317 0.00064057
*CONN
*I *1435:A I *D sky130_fd_sc_hd__clkbuf_1
*I *1434:X O *D sky130_fd_sc_hd__mux2_1
*CAP
1 *1435:A 0
2 *1434:X 0.000163653
3 *317:10 0.000163653
4 *317:10 *488:32 5.50106e-05
5 *128:10 *317:10 4.85428e-05
6 *170:18 *317:10 0.00020971
*RES
1 *1434:X *317:10 27.4743 
2 *317:10 *1435:A 23 
*END

*D_NET *318 0.00184274
*CONN
*I *1437:A I *D sky130_fd_sc_hd__clkbuf_4
*I *1436:X O *D sky130_fd_sc_hd__and3b_1
*CAP
1 *1437:A 0.00020091
2 *1436:X 0.000315387
3 *318:14 0.000516297
4 *318:14 *515:102 9.34177e-05
5 *318:14 *515:115 4.2573e-05
6 *163:199 *318:14 0.00033896
7 *278:8 *1437:A 0
8 *278:53 *1437:A 0
9 *286:10 *1437:A 0
10 *297:42 *318:14 0.000185434
11 *298:12 *318:14 0.000149765
*RES
1 *1436:X *318:14 47.86 
2 *318:14 *1437:A 41.3143 
*END

*D_NET *319 0.0227679
*CONN
*I *1438:S I *D sky130_fd_sc_hd__mux2_1
*I *1442:S I *D sky130_fd_sc_hd__mux2_1
*I *1440:S I *D sky130_fd_sc_hd__mux2_1
*I *1446:S I *D sky130_fd_sc_hd__mux2_1
*I *1448:S I *D sky130_fd_sc_hd__mux2_1
*I *1450:S I *D sky130_fd_sc_hd__mux2_1
*I *1452:S I *D sky130_fd_sc_hd__mux2_1
*I *1444:S I *D sky130_fd_sc_hd__mux2_1
*I *1437:X O *D sky130_fd_sc_hd__clkbuf_4
*CAP
1 *1438:S 8.57781e-05
2 *1442:S 0
3 *1440:S 0
4 *1446:S 0
5 *1448:S 0.000121763
6 *1450:S 0
7 *1452:S 0
8 *1444:S 0
9 *1437:X 0
10 *319:120 0.000653397
11 *319:106 0.000826672
12 *319:104 0.00162152
13 *319:84 0.00290881
14 *319:66 0.00206175
15 *319:47 0.000955636
16 *319:38 0.000497274
17 *319:27 0.000833408
18 *319:12 0.000935507
19 *319:4 0.00141854
20 *1438:S *1575:A 0.000363448
21 *1448:S *1448:A1 9.31482e-05
22 *319:12 *1444:A1 5.75756e-06
23 *319:12 *429:25 0
24 *319:12 *435:50 0.000118847
25 *319:27 *1379:A0 9.82009e-05
26 *319:27 *1452:A0 7.87243e-05
27 *319:27 *328:36 0.000164282
28 *319:27 *392:8 0.000185368
29 *319:27 *488:116 9.51236e-05
30 *319:38 *1452:A0 4.93812e-05
31 *319:38 *332:10 0.000100306
32 *319:38 *332:29 0.000235869
33 *319:38 *392:8 0.000273267
34 *319:38 *488:108 5.91055e-05
35 *319:47 *332:29 5.85486e-05
36 *319:47 *332:42 0.000201519
37 *319:66 *332:42 0.000218834
38 *319:66 *332:74 0.000175599
39 *319:66 *335:85 0
40 *319:66 *350:14 0
41 *319:84 *1575:A 6.60665e-05
42 *319:84 *336:55 0
43 *319:84 *339:10 0.000100029
44 *319:84 *371:23 0
45 *319:84 *385:12 0.000136338
46 *319:84 *403:10 6.16771e-05
47 *319:84 *419:27 0.000695254
48 *319:84 *433:76 0.000267649
49 *319:84 *500:10 6.15166e-05
50 *319:104 *1442:A0 5.45644e-05
51 *319:104 *1442:A1 5.1574e-05
52 *319:104 *1498:CLK 9.79349e-05
53 *319:104 *336:97 1.83327e-05
54 *319:104 *336:99 0.000196051
55 *319:120 *1228:B2 8.78864e-05
56 *319:120 *1441:A 0.000113908
57 *319:120 *334:104 0.000624234
58 *319:120 *357:10 5.58003e-05
59 *319:120 *425:55 0.000170807
60 *319:120 *437:122 4.19479e-05
61 *1373:S *319:106 5.5792e-05
62 *1373:S *319:120 0.000469042
63 *1376:A *1448:S 1.24376e-05
64 *1496:D *319:84 8.78864e-05
65 *1528:D *319:104 4.89325e-05
66 *89:10 *319:84 0
67 *97:8 *1438:S 0.000408134
68 *97:8 *319:104 5.58003e-05
69 *103:8 *319:38 0.000131431
70 *110:10 *319:66 6.68587e-05
71 *176:77 *319:84 0
72 *215:8 *319:84 0
73 *258:40 *319:12 0
74 *268:86 *319:38 0.000590678
75 *268:86 *319:47 0.000252501
76 *268:86 *319:66 0.000571339
77 *268:101 *319:66 0.000714908
78 *268:101 *319:84 0.000362041
79 *268:124 *319:84 7.48331e-05
80 *278:20 *319:12 0.000119969
81 *278:20 *319:27 0.000162598
82 *288:121 *319:66 1.0092e-05
83 *289:10 *319:84 3.76761e-05
84 *294:10 *319:66 7.45744e-05
85 *299:97 *319:84 6.34104e-05
86 *308:10 *319:12 0
87 *309:10 *319:12 0
*RES
1 *1437:X *319:4 23 
2 *319:4 *319:12 43.92 
3 *319:12 *1444:S 23 
4 *319:4 *319:27 39.6943 
5 *319:27 *1452:S 23 
6 *319:27 *319:38 26.2479 
7 *319:38 *1450:S 38 
8 *319:38 *319:47 3.66643 
9 *319:47 *1448:S 40.5479 
10 *319:47 *319:66 48.4979 
11 *319:66 *319:84 45.5329 
12 *319:84 *319:104 22.62 
13 *319:104 *319:106 3.48 
14 *319:106 *319:120 46.7579 
15 *319:120 *1446:S 23 
16 *319:106 *1440:S 23 
17 *319:104 *1442:S 23 
18 *319:84 *1438:S 27.4329 
*END

*D_NET *320 0.00115322
*CONN
*I *1439:A I *D sky130_fd_sc_hd__clkbuf_1
*I *1438:X O *D sky130_fd_sc_hd__mux2_1
*CAP
1 *1439:A 0.00012665
2 *1438:X 0.000211911
3 *320:10 0.000338561
4 *320:10 *401:27 0
5 *320:10 *419:27 7.70235e-05
6 *97:8 *320:10 0.000147656
7 *176:87 *1439:A 2.18409e-05
8 *176:87 *320:10 0
9 *278:87 *1439:A 0.000229583
*RES
1 *1438:X *320:10 41.8321 
2 *320:10 *1439:A 41.0036 
*END

*D_NET *321 0.000254591
*CONN
*I *1441:A I *D sky130_fd_sc_hd__clkbuf_1
*I *1440:X O *D sky130_fd_sc_hd__mux2_1
*CAP
1 *1441:A 7.03419e-05
2 *1440:X 7.03419e-05
3 *319:120 *1441:A 0.000113908
*RES
1 *1440:X *1441:A 47.9471 
*END

*D_NET *322 0.000725261
*CONN
*I *1443:A I *D sky130_fd_sc_hd__clkbuf_1
*I *1442:X O *D sky130_fd_sc_hd__mux2_1
*CAP
1 *1443:A 2.95011e-05
2 *1442:X 0.000270946
3 *322:12 0.000300448
4 *1443:A *386:25 5.50106e-05
5 *322:12 *386:25 0
6 *322:12 *489:8 0
7 *131:10 *322:12 6.93553e-05
*RES
1 *1442:X *322:12 43.4893 
2 *322:12 *1443:A 38.6214 
*END

*D_NET *323 0.000661843
*CONN
*I *1445:A I *D sky130_fd_sc_hd__clkbuf_1
*I *1444:X O *D sky130_fd_sc_hd__mux2_1
*CAP
1 *1445:A 0
2 *1444:X 0.000285183
3 *323:8 0.000285183
4 *323:8 *1444:A1 0
5 *323:8 *330:58 0
6 *132:8 *323:8 9.14776e-05
*RES
1 *1444:X *323:8 43.075 
2 *323:8 *1445:A 38 
*END

*D_NET *324 0.000365437
*CONN
*I *1447:A I *D sky130_fd_sc_hd__clkbuf_1
*I *1446:X O *D sky130_fd_sc_hd__mux2_1
*CAP
1 *1447:A 0.000182718
2 *1446:X 0.000182718
*RES
1 *1446:X *1447:A 49.3764 
*END

*D_NET *325 0.000196335
*CONN
*I *1449:A I *D sky130_fd_sc_hd__clkbuf_1
*I *1448:X O *D sky130_fd_sc_hd__mux2_1
*CAP
1 *1449:A 9.81677e-05
2 *1448:X 9.81677e-05
*RES
1 *1448:X *1449:A 47.9471 
*END

*D_NET *326 0.00112663
*CONN
*I *1451:A I *D sky130_fd_sc_hd__clkbuf_1
*I *1450:X O *D sky130_fd_sc_hd__mux2_1
*CAP
1 *1451:A 3.42e-05
2 *1450:X 0.000185115
3 *326:10 0.000219315
4 *326:10 *1210:B2 9.65021e-05
5 *165:61 *326:10 0.000325513
6 *166:76 *1451:A 1.77795e-05
7 *175:33 *326:10 0.000192564
8 *185:6 *326:10 5.56356e-05
*RES
1 *1450:X *326:10 43.4686 
2 *326:10 *1451:A 38.8493 
*END

*D_NET *327 0.0012935
*CONN
*I *1453:A I *D sky130_fd_sc_hd__clkbuf_1
*I *1452:X O *D sky130_fd_sc_hd__mux2_1
*CAP
1 *1453:A 0
2 *1452:X 0.000476036
3 *327:8 0.000476036
4 *327:8 *329:109 0.000141954
5 *327:8 *392:8 3.22051e-05
6 *1535:D *327:8 0.00016727
*RES
1 *1452:X *327:8 33.0464 
2 *327:8 *1453:A 23 
*END

*D_NET *328 0.0262439
*CONN
*I *1545:A I *D sky130_fd_sc_hd__clkbuf_16
*I *1539:A I *D sky130_fd_sc_hd__clkbuf_16
*I *1538:A I *D sky130_fd_sc_hd__clkbuf_16
*I *1543:A I *D sky130_fd_sc_hd__clkbuf_16
*I *1542:A I *D sky130_fd_sc_hd__clkbuf_16
*I *1544:A I *D sky130_fd_sc_hd__clkbuf_16
*I *1541:A I *D sky130_fd_sc_hd__clkbuf_16
*I *1540:A I *D sky130_fd_sc_hd__clkbuf_16
*I *1537:X O *D sky130_fd_sc_hd__clkbuf_16
*CAP
1 *1545:A 0
2 *1539:A 0
3 *1538:A 0.000240739
4 *1543:A 0.000404285
5 *1542:A 0
6 *1544:A 0.000233944
7 *1541:A 4.42185e-05
8 *1540:A 0
9 *1537:X 0.000105936
10 *328:135 0.00071809
11 *328:113 0.002049
12 *328:83 0.000593318
13 *328:79 0.00405829
14 *328:75 0.00281487
15 *328:48 0.000688573
16 *328:36 0.00337228
17 *328:20 0.00346007
18 *328:10 0.000728359
19 *1538:A *1153:B 0.00018335
20 *1538:A *511:10 1.05441e-05
21 *1541:A *1379:A0 5.3304e-05
22 *1543:A *422:50 0.000645341
23 *1543:A *425:47 9.31694e-05
24 *328:10 *425:18 5.41385e-05
25 *328:10 *434:12 5.97612e-05
26 *328:20 *335:16 0.000193772
27 *328:20 *335:27 6.59377e-05
28 *328:36 *481:10 3.47781e-05
29 *328:36 *488:116 1.65132e-05
30 *328:36 *499:63 1.6982e-05
31 *328:48 *1194:A1 0
32 *328:48 *1503:CLK 0.000427761
33 *328:48 *481:10 0.000178967
34 *328:48 *488:116 1.68817e-05
35 *328:75 *434:12 5.07273e-05
36 *328:83 *422:50 0.000165563
37 *328:83 *425:47 0.000105876
38 *328:83 *491:8 0.000218873
39 *328:113 *499:44 1.98075e-05
40 *328:113 *511:10 0.000142544
41 *328:135 *336:34 0.000347205
42 *328:135 *395:12 0.000289137
43 *328:135 *434:12 0.00036385
44 *1243:A2 *328:135 2.33476e-05
45 *1248:A2 *328:135 0.000364757
46 *1394:A *1544:A 0.000100069
47 *1493:D *328:20 5.92579e-05
48 *5:21 *328:79 0
49 *5:21 *328:113 1.69779e-05
50 *83:8 *328:135 0.000347205
51 *85:10 *1543:A 4.96264e-05
52 *104:8 *328:48 3.46181e-05
53 *138:23 *1538:A 2.60152e-05
54 *142:116 *328:113 0.000135375
55 *142:128 *1543:A 0
56 *142:128 *328:83 0
57 *153:22 *1538:A 0.00018293
58 *154:10 *1538:A 0.000194318
59 *165:61 *328:36 6.26708e-06
60 *166:10 *328:10 6.68793e-05
61 *166:10 *328:75 4.71168e-05
62 *166:10 *328:135 1.45549e-05
63 *166:21 *328:135 3.83778e-05
64 *167:138 *328:48 1.02561e-05
65 *172:98 *1544:A 0
66 *172:98 *328:20 0
67 *202:22 *1543:A 0.000177099
68 *209:12 *328:10 1.01436e-05
69 *210:12 *328:10 9.67842e-05
70 *213:10 *328:135 6.09929e-05
71 *218:8 *328:135 0.000133316
72 *238:10 *1538:A 0
73 *238:46 *1538:A 0
74 *238:46 *328:113 0
75 *245:16 *1538:A 0
76 *245:33 *328:113 0.000102679
77 *245:56 *1543:A 0.000135616
78 *261:10 *328:135 0.000259658
79 *268:86 *328:36 0
80 *268:101 *1544:A 0
81 *268:101 *328:20 0
82 *278:31 *1541:A 9.65021e-05
83 *286:10 *328:48 2.21344e-05
84 *319:27 *328:36 0.000164282
*RES
1 *1537:X *328:10 41.0036 
2 *328:10 *328:20 38.8139 
3 *328:20 *328:36 40.6087 
4 *328:36 *328:48 27.8636 
5 *328:48 *1540:A 23 
6 *328:36 *1541:A 39.0979 
7 *328:20 *1544:A 42.2361 
8 *328:10 *328:75 1.3775 
9 *328:75 *328:79 12.1776 
10 *328:79 *328:83 13.2511 
11 *328:83 *1542:A 38 
12 *328:83 *1543:A 49.0614 
13 *328:79 *328:113 30.0447 
14 *328:113 *1538:A 43.7793 
15 *328:113 *1539:A 38 
16 *328:75 *328:135 35.4761 
17 *328:135 *1545:A 23 
*END

*D_NET *329 0.0198852
*CONN
*I *1473:CLK I *D sky130_fd_sc_hd__dfrtp_1
*I *1535:CLK I *D sky130_fd_sc_hd__dfxtp_1
*I *1472:CLK I *D sky130_fd_sc_hd__dfrtp_1
*I *1474:CLK I *D sky130_fd_sc_hd__dfrtp_4
*I *1475:CLK I *D sky130_fd_sc_hd__dfrtp_2
*I *1476:CLK I *D sky130_fd_sc_hd__dfrtp_4
*I *1477:CLK I *D sky130_fd_sc_hd__dfrtp_4
*I *1478:CLK I *D sky130_fd_sc_hd__dfrtp_4
*I *1479:CLK I *D sky130_fd_sc_hd__dfrtp_2
*I *1538:X O *D sky130_fd_sc_hd__clkbuf_16
*CAP
1 *1473:CLK 0.00057431
2 *1535:CLK 0
3 *1472:CLK 3.3604e-05
4 *1474:CLK 0
5 *1475:CLK 0
6 *1476:CLK 0.0006143
7 *1477:CLK 0
8 *1478:CLK 0.000707393
9 *1479:CLK 0.000655361
10 *1538:X 0
11 *329:109 0.00126113
12 *329:105 0.00200809
13 *329:89 0.000928648
14 *329:62 0.000870015
15 *329:41 0.00152354
16 *329:24 0.0015741
17 *329:18 0.000696426
18 *329:16 0.00135448
19 *329:14 0.000970236
20 *329:6 0.00102157
21 *1473:CLK *437:40 9.1411e-05
22 *1473:CLK *437:62 5.29205e-05
23 *1476:CLK *515:14 0.000233367
24 *1478:CLK *516:20 5.12328e-05
25 *1478:CLK *516:29 0
26 *329:14 *437:40 0.000107641
27 *329:14 *510:6 4.04598e-06
28 *329:14 *512:23 6.95768e-05
29 *329:41 *1607:A 0.000301719
30 *329:41 *517:6 0.000143655
31 *329:62 *1381:A 9.84851e-05
32 *329:105 *437:40 0.000183047
33 *329:105 *512:23 6.96264e-05
34 *329:109 *1171:A 4.96717e-05
35 *329:109 *330:8 0.000274898
36 *1164:A *329:62 0.000140259
37 *1182:A1 *1473:CLK 5.5792e-05
38 *1187:A *329:18 6.48142e-05
39 *1187:A *329:89 0.000284572
40 *1187:B *329:14 0.000269994
41 *1280:B *329:109 0.000145238
42 *1280:C *329:109 0.000494203
43 *1381:C_N *1476:CLK 9.69279e-05
44 *1381:C_N *329:62 5.83407e-05
45 *1382:A *329:62 1.03836e-05
46 *1473:D *1473:CLK 9.5148e-05
47 *1476:D *1476:CLK 2.92604e-05
48 *1478:D *1478:CLK 5.50049e-05
49 *48:10 *329:105 3.3746e-05
50 *54:12 *329:24 1.15307e-05
51 *76:10 *329:18 0.000144796
52 *142:77 *1472:CLK 0
53 *142:77 *329:18 0
54 *142:77 *329:89 0
55 *144:54 *329:41 7.15126e-05
56 *145:16 *329:41 0.000110922
57 *145:16 *329:62 5.50106e-05
58 *146:10 *329:62 9.00923e-05
59 *147:8 *1478:CLK 9.48381e-06
60 *147:8 *329:41 1.4471e-05
61 *152:12 *329:109 0.000100488
62 *152:141 *329:109 5.66878e-05
63 *157:10 *329:18 0
64 *158:22 *329:14 2.58416e-05
65 *158:41 *329:14 1.98587e-05
66 *158:83 *329:109 9.17998e-05
67 *159:8 *329:18 2.79004e-05
68 *160:12 *1473:CLK 0.000185347
69 *160:12 *329:105 8.51049e-05
70 *241:10 *329:109 7.72342e-05
71 *254:16 *329:18 0
72 *288:28 *1478:CLK 5.82411e-05
73 *288:64 *1478:CLK 4.4382e-05
74 *288:64 *329:41 7.20415e-05
75 *309:8 *329:109 3.22879e-05
76 *327:8 *329:109 0.000141954
*RES
1 *1538:X *329:6 38 
2 *329:6 *329:14 42.1593 
3 *329:14 *329:16 1.09786 
4 *329:16 *329:18 6.48357 
5 *329:18 *329:24 21.6286 
6 *329:24 *1479:CLK 31.1614 
7 *329:24 *329:41 26.455 
8 *329:41 *1478:CLK 48.6886 
9 *329:41 *329:62 21.3386 
10 *329:62 *1477:CLK 23 
11 *329:62 *1476:CLK 34.5793 
12 *329:18 *1475:CLK 38 
13 *329:16 *329:89 28.1121 
14 *329:89 *1474:CLK 23 
15 *329:14 *1472:CLK 38.8493 
16 *329:6 *329:105 5.075 
17 *329:105 *329:109 42.3014 
18 *329:109 *1535:CLK 23 
19 *329:105 *1473:CLK 48.3779 
*END

*D_NET *330 0.0153827
*CONN
*I *1457:CLK I *D sky130_fd_sc_hd__dfxtp_1
*I *1515:CLK I *D sky130_fd_sc_hd__dfxtp_1
*I *1499:CLK I *D sky130_fd_sc_hd__dfxtp_1
*I *1534:CLK I *D sky130_fd_sc_hd__dfxtp_1
*I *1531:CLK I *D sky130_fd_sc_hd__dfxtp_1
*I *1507:CLK I *D sky130_fd_sc_hd__dfxtp_1
*I *1491:CLK I *D sky130_fd_sc_hd__dfxtp_1
*I *1539:X O *D sky130_fd_sc_hd__clkbuf_16
*CAP
1 *1457:CLK 0.000282441
2 *1515:CLK 2.30556e-05
3 *1499:CLK 0
4 *1534:CLK 0
5 *1531:CLK 0
6 *1507:CLK 4.01155e-05
7 *1491:CLK 0
8 *1539:X 0.000439671
9 *330:75 0.00114311
10 *330:65 0.0013221
11 *330:58 0.000194472
12 *330:50 0.000985916
13 *330:38 0.000930846
14 *330:24 0.000893518
15 *330:16 0.00202265
16 *330:12 0.00138436
17 *330:10 0.000979813
18 *330:8 0.00113704
19 *1457:CLK *444:66 7.56417e-05
20 *330:10 *511:10 0.000111329
21 *330:16 *1233:B1 1.39431e-05
22 *330:16 *1296:A1 4.04206e-05
23 *330:16 *348:25 0.000266421
24 *330:16 *364:8 5.61848e-06
25 *330:16 *444:46 0.000291211
26 *330:24 *348:25 1.94812e-05
27 *330:24 *418:14 0
28 *330:24 *430:29 0.000140684
29 *330:38 *1296:A1 5.50106e-05
30 *330:50 *435:31 6.00824e-05
31 *330:58 *435:31 0
32 *1188:B *330:10 4.13477e-05
33 *1200:A_N *330:10 2.78653e-05
34 *1281:A1 *330:50 8.653e-05
35 *1372:A *330:65 0.00014384
36 *1372:A *330:75 6.4554e-05
37 *1457:D *1457:CLK 5.92579e-05
38 *1515:D *330:50 3.24476e-06
39 *1531:D *330:58 3.28357e-06
40 *116:8 *330:50 8.62783e-05
41 *132:8 *330:58 4.95928e-05
42 *142:116 *1457:CLK 0.00010587
43 *142:116 *330:10 0.000162733
44 *152:12 *330:10 4.28761e-05
45 *157:75 *330:10 2.12352e-05
46 *157:86 *330:10 1.21857e-05
47 *158:200 *1457:CLK 0.000269855
48 *160:39 *330:50 0.00021827
49 *160:39 *330:65 0.000421406
50 *165:165 *330:50 0
51 *172:12 *330:58 1.12796e-05
52 *176:34 *330:75 9.77616e-05
53 *205:12 *330:38 6.51763e-05
54 *219:24 *1457:CLK 0.000149822
55 *238:46 *330:10 0
56 *245:16 *1457:CLK 0
57 *245:16 *330:10 0
58 *245:20 *330:38 2.18409e-05
59 *245:33 *330:38 6.82514e-05
60 *249:10 *1457:CLK 1.4471e-05
61 *262:8 *330:50 0
62 *323:8 *330:58 0
63 *329:109 *330:8 0.000274898
*RES
1 *1539:X *330:8 43.8621 
2 *330:8 *330:10 12.8221 
3 *330:10 *330:12 15 
4 *330:12 *330:16 16.3643 
5 *330:16 *330:24 41.5793 
6 *330:24 *1491:CLK 23 
7 *330:16 *1507:CLK 23.8493 
8 *330:12 *330:38 5.38571 
9 *330:38 *330:50 41.5793 
10 *330:50 *330:58 33.1071 
11 *330:58 *1531:CLK 23 
12 *330:50 *330:65 5.38571 
13 *330:65 *330:75 44.8107 
14 *330:75 *1534:CLK 23 
15 *330:65 *1499:CLK 23 
16 *330:38 *1515:CLK 23.4971 
17 *330:10 *1457:CLK 45.7471 
*END

*D_NET *331 0.0169252
*CONN
*I *1503:CLK I *D sky130_fd_sc_hd__dfxtp_1
*I *1487:CLK I *D sky130_fd_sc_hd__dfxtp_1
*I *1519:CLK I *D sky130_fd_sc_hd__dfxtp_1
*I *1486:CLK I *D sky130_fd_sc_hd__dfxtp_1
*I *1470:CLK I *D sky130_fd_sc_hd__dfrtp_1
*I *1460:CLK I *D sky130_fd_sc_hd__dfxtp_1
*I *1471:CLK I *D sky130_fd_sc_hd__dfrtp_1
*I *1510:CLK I *D sky130_fd_sc_hd__dfxtp_1
*I *1461:CLK I *D sky130_fd_sc_hd__dfxtp_1
*I *1511:CLK I *D sky130_fd_sc_hd__dfxtp_1
*I *1462:CLK I *D sky130_fd_sc_hd__dfrtp_1
*I *1494:CLK I *D sky130_fd_sc_hd__dfxtp_1
*I *1495:CLK I *D sky130_fd_sc_hd__dfxtp_1
*I *1540:X O *D sky130_fd_sc_hd__clkbuf_16
*CAP
1 *1503:CLK 0.000290122
2 *1487:CLK 0.000257198
3 *1519:CLK 0.000262326
4 *1486:CLK 3.07777e-05
5 *1470:CLK 0
6 *1460:CLK 0
7 *1471:CLK 9.61844e-05
8 *1510:CLK 2.30556e-05
9 *1461:CLK 0
10 *1511:CLK 1.68175e-05
11 *1462:CLK 0.000127267
12 *1494:CLK 2.30556e-05
13 *1495:CLK 6.9594e-05
14 *1540:X 0.00037453
15 *331:133 0.000537066
16 *331:129 0.000455499
17 *331:114 0.000449997
18 *331:105 0.000530496
19 *331:76 0.000330306
20 *331:48 0.000979323
21 *331:46 0.00101082
22 *331:38 0.000852556
23 *331:36 0.000675637
24 *331:34 0.000638947
25 *331:23 0.000519064
26 *331:12 0.000392239
27 *331:8 0.000762977
28 *1487:CLK *488:51 5.50049e-05
29 *1503:CLK *1194:A1 0
30 *1519:CLK *344:21 0
31 *1519:CLK *477:66 0
32 *1519:CLK *488:16 0.000138727
33 *331:23 *352:10 5.56356e-05
34 *331:34 *352:10 0.000358711
35 *331:38 *367:21 8.43115e-05
36 *331:38 *368:10 0
37 *331:38 *368:25 0
38 *331:46 *1593:A 1.37232e-05
39 *331:46 *367:21 3.56537e-05
40 *331:46 *368:10 0.000142634
41 *331:46 *477:36 0
42 *331:48 *368:10 0.000146822
43 *331:76 *488:90 0
44 *331:105 *367:21 5.45541e-05
45 *331:114 *399:16 8.47624e-05
46 *331:114 *399:29 2.56863e-05
47 *331:129 *399:29 7.17698e-05
48 *331:129 *488:16 0.000208362
49 *331:129 *492:6 9.41704e-05
50 *331:133 *477:22 5.62672e-05
51 *331:133 *488:16 0.000419674
52 *1206:A2 *1487:CLK 4.2588e-05
53 *1206:A2 *331:36 1.5997e-05
54 *1206:A2 *331:38 1.7403e-05
55 *1303:A *331:105 0.000100477
56 *1342:A *1486:CLK 6.17437e-06
57 *1359:S *331:34 0.000179893
58 *1360:A *331:105 9.79925e-05
59 *1362:A *1495:CLK 0.000279219
60 *1362:A *331:23 0.000100486
61 *1460:D *331:105 1.73995e-05
62 *1460:D *331:114 0.000132599
63 *1470:D *331:129 2.93431e-05
64 *1486:D *1486:CLK 5.56279e-05
65 *1494:D *331:34 0.000141707
66 *1495:D *1495:CLK 0.000129548
67 *1510:D *331:46 1.64354e-05
68 *1511:D *1462:CLK 2.4754e-05
69 *1511:D *1511:CLK 6.59204e-05
70 *1511:D *331:48 0.000106066
71 *62:10 *331:76 0
72 *72:10 *331:38 0.000141869
73 *163:199 *1487:CLK 6.32794e-05
74 *163:199 *331:38 1.794e-05
75 *163:222 *331:114 0.000353906
76 *163:222 *331:129 2.06822e-05
77 *163:230 *331:129 0.000188325
78 *167:138 *1487:CLK 1.94693e-05
79 *167:142 *1487:CLK 7.45997e-05
80 *168:38 *331:8 0.000576699
81 *168:48 *1487:CLK 0.000181482
82 *168:48 *331:36 0.000227378
83 *168:48 *331:38 9.10172e-05
84 *168:48 *331:105 6.17437e-06
85 *179:12 *1487:CLK 0
86 *181:10 *331:105 0.000268596
87 *181:10 *331:114 3.2277e-05
88 *186:14 *1519:CLK 0
89 *186:14 *331:133 0
90 *188:10 *331:129 3.06803e-05
91 *245:151 *1487:CLK 1.0092e-05
92 *245:151 *331:36 0.000187612
93 *253:8 *331:76 0
94 *265:10 *331:133 0.000110184
95 *268:67 *1495:CLK 3.53377e-05
96 *268:67 *331:23 9.92842e-05
97 *268:67 *331:34 3.61992e-05
98 *276:8 *1503:CLK 4.6318e-06
99 *276:8 *331:12 3.75047e-05
100 *286:10 *1503:CLK 0.000140949
101 *288:38 *1462:CLK 3.46673e-05
102 *288:38 *331:48 5.26575e-05
103 *307:8 *1519:CLK 0.000141975
104 *328:48 *1503:CLK 0.000427761
*RES
1 *1540:X *331:8 44.3386 
2 *331:8 *331:12 16.5536 
3 *331:12 *1495:CLK 26.5007 
4 *331:12 *331:23 4.90929 
5 *331:23 *1494:CLK 23.4971 
6 *331:23 *331:34 21.815 
7 *331:34 *331:36 3.31429 
8 *331:36 *331:38 6.48357 
9 *331:38 *331:46 23.6171 
10 *331:46 *331:48 9.19714 
11 *331:48 *1462:CLK 25.5479 
12 *331:48 *1511:CLK 24.1548 
13 *331:48 *331:76 35.8414 
14 *331:76 *1461:CLK 23 
15 *331:46 *1510:CLK 23.4971 
16 *331:38 *1471:CLK 39.595 
17 *331:36 *331:105 22.7886 
18 *331:105 *1460:CLK 23 
19 *331:105 *331:114 8.74143 
20 *331:114 *1470:CLK 23 
21 *331:114 *331:129 35.6343 
22 *331:129 *331:133 20.7793 
23 *331:133 *1486:CLK 38.6214 
24 *331:133 *1519:CLK 43.4271 
25 *331:34 *1487:CLK 44.0486 
26 *331:8 *1503:CLK 44.4836 
*END

*D_NET *332 0.012947
*CONN
*I *1527:CLK I *D sky130_fd_sc_hd__dfxtp_1
*I *1525:CLK I *D sky130_fd_sc_hd__dfxtp_1
*I *1517:CLK I *D sky130_fd_sc_hd__dfxtp_1
*I *1463:CLK I *D sky130_fd_sc_hd__dfrtp_1
*I *1518:CLK I *D sky130_fd_sc_hd__dfxtp_1
*I *1501:CLK I *D sky130_fd_sc_hd__dfxtp_1
*I *1533:CLK I *D sky130_fd_sc_hd__dfxtp_1
*I *1526:CLK I *D sky130_fd_sc_hd__dfxtp_1
*I *1502:CLK I *D sky130_fd_sc_hd__dfxtp_1
*I *1541:X O *D sky130_fd_sc_hd__clkbuf_16
*CAP
1 *1527:CLK 0.000207322
2 *1525:CLK 0
3 *1517:CLK 0
4 *1463:CLK 0
5 *1518:CLK 0
6 *1501:CLK 2.30556e-05
7 *1533:CLK 0.000275327
8 *1526:CLK 0.000323169
9 *1502:CLK 0.000147865
10 *1541:X 0
11 *332:96 0.000343836
12 *332:86 0.000641888
13 *332:78 0.000708543
14 *332:74 0.000892686
15 *332:46 0.000411959
16 *332:42 0.000853356
17 *332:29 0.000978081
18 *332:10 0.00097699
19 *332:4 0.000639119
20 *1526:CLK *1450:A0 5.58003e-05
21 *1526:CLK *1548:A 9.29049e-05
22 *1533:CLK *390:10 5.79559e-05
23 *332:10 *360:27 0
24 *332:10 *488:108 4.08537e-05
25 *332:29 *359:16 0
26 *332:46 *390:10 5.73288e-05
27 *332:74 *1219:A1 4.56219e-05
28 *332:74 *1219:B2 0.000139357
29 *332:74 *350:14 2.71291e-05
30 *332:86 *464:10 0.000139647
31 *1201:A2 *332:10 0
32 *1201:B1 *332:10 0
33 *1201:B1 *332:29 0
34 *1201:B1 *332:42 0
35 *1209:A1 *332:96 2.193e-05
36 *1209:A2 *332:96 5.56279e-05
37 *1211:B1 *332:96 1.11037e-05
38 *1219:A2 *332:74 2.64616e-05
39 *1236:B1 *1533:CLK 9.62909e-05
40 *1501:D *332:46 8.52864e-05
41 *1502:D *1502:CLK 0.000141896
42 *1525:D *332:78 1.64354e-05
43 *1533:D *1533:CLK 1.64354e-05
44 *64:10 *332:96 1.26098e-05
45 *103:8 *332:10 9.28078e-06
46 *103:8 *332:29 0.00012215
47 *160:93 *1533:CLK 0.000502289
48 *160:97 *332:74 6.46508e-05
49 *160:97 *332:78 0.000343681
50 *160:113 *332:86 9.43282e-05
51 *160:113 *332:96 0.000185692
52 *165:82 *1533:CLK 8.2615e-05
53 *165:82 *332:46 1.64001e-05
54 *165:139 *332:96 0
55 *166:76 *1502:CLK 0.000349457
56 *166:106 *332:86 0.000131204
57 *176:45 *1526:CLK 0.000276734
58 *176:64 *332:42 0
59 *176:64 *332:74 0
60 *183:10 *332:96 8.71559e-05
61 *185:6 *1526:CLK 8.20526e-05
62 *193:10 *332:74 0.000187129
63 *193:10 *332:78 0.000184624
64 *268:86 *332:10 2.44393e-05
65 *278:31 *1527:CLK 0.000182826
66 *278:31 *332:10 8.82787e-05
67 *299:109 *332:86 0.000210668
68 *299:129 *332:86 0.000166826
69 *319:38 *332:10 0.000100306
70 *319:38 *332:29 0.000235869
71 *319:47 *332:29 5.85486e-05
72 *319:47 *332:42 0.000201519
73 *319:66 *332:42 0.000218834
74 *319:66 *332:74 0.000175599
*RES
1 *1541:X *332:4 23 
2 *332:4 *332:10 22.6021 
3 *332:10 *1502:CLK 42.4743 
4 *332:10 *332:29 6.89786 
5 *332:29 *1526:CLK 45.7886 
6 *332:29 *332:42 5.77929 
7 *332:42 *332:46 17.0507 
8 *332:46 *1533:CLK 31.265 
9 *332:46 *1501:CLK 23.4971 
10 *332:42 *332:74 25.5643 
11 *332:74 *332:78 9.21786 
12 *332:78 *332:86 38.4307 
13 *332:86 *332:96 37.0221 
14 *332:96 *1518:CLK 23 
15 *332:86 *1463:CLK 23 
16 *332:78 *1517:CLK 23 
17 *332:74 *1525:CLK 23 
18 *332:4 *1527:CLK 27.3293 
*END

*D_NET *333 0.013714
*CONN
*I *1506:CLK I *D sky130_fd_sc_hd__dfxtp_1
*I *1483:CLK I *D sky130_fd_sc_hd__dfxtp_1
*I *1481:CLK I *D sky130_fd_sc_hd__dfxtp_1
*I *1458:CLK I *D sky130_fd_sc_hd__dfxtp_1
*I *1508:CLK I *D sky130_fd_sc_hd__dfxtp_1
*I *1469:CLK I *D sky130_fd_sc_hd__dfrtp_1
*I *1489:CLK I *D sky130_fd_sc_hd__dfxtp_1
*I *1455:CLK I *D sky130_fd_sc_hd__dfxtp_1
*I *1505:CLK I *D sky130_fd_sc_hd__dfxtp_1
*I *1466:CLK I *D sky130_fd_sc_hd__dfrtp_1
*I *1542:X O *D sky130_fd_sc_hd__clkbuf_16
*CAP
1 *1506:CLK 0.000189509
2 *1483:CLK 0
3 *1481:CLK 0
4 *1458:CLK 0.000257736
5 *1508:CLK 3.27501e-05
6 *1469:CLK 0.000123022
7 *1489:CLK 0.000154007
8 *1455:CLK 0.000438222
9 *1505:CLK 0
10 *1466:CLK 0.000157079
11 *1542:X 0
12 *333:108 0.000435561
13 *333:98 0.000845366
14 *333:91 0.000623837
15 *333:39 0.0011446
16 *333:24 0.00101221
17 *333:22 0.000634357
18 *333:20 0.00108037
19 *333:16 0.00117232
20 *333:10 0.00108539
21 *333:4 0.000717383
22 *1455:CLK *362:10 5.2894e-05
23 *1458:CLK *365:10 6.7177e-06
24 *1458:CLK *438:42 6.79387e-05
25 *1466:CLK *430:29 0
26 *1469:CLK *430:29 0
27 *333:10 *438:42 0.000208552
28 *333:16 *365:10 0.000100486
29 *333:20 *1222:A0 0.000226899
30 *333:22 *430:29 0
31 *333:24 *430:29 0
32 *333:108 *437:106 0.000192816
33 *1350:A *333:39 0.000223692
34 *1355:S *333:20 1.34914e-05
35 *1455:D *1455:CLK 0.000139357
36 *1458:D *1458:CLK 5.73018e-05
37 *1481:D *333:98 9.81682e-05
38 *1505:D *1455:CLK 0.000131225
39 *1508:D *333:16 8.68427e-05
40 *10:13 *333:22 0
41 *59:8 *1458:CLK 4.74249e-05
42 *59:8 *333:10 5.75756e-06
43 *84:10 *333:108 3.36312e-06
44 *90:10 *333:39 3.22879e-05
45 *158:121 *333:16 2.93104e-06
46 *163:45 *333:20 0.000333035
47 *165:165 *333:108 0
48 *167:38 *333:10 2.193e-05
49 *167:38 *333:91 4.53082e-05
50 *203:6 *333:16 0.000178409
51 *242:14 *333:10 0
52 *245:56 *333:91 9.66585e-05
53 *245:56 *333:98 2.43944e-05
54 *245:81 *1506:CLK 0.000231585
55 *245:81 *333:98 0.00012463
56 *250:10 *333:16 6.17437e-06
57 *258:56 *333:108 0
58 *258:60 *333:108 0.000214884
59 *273:10 *333:20 5.79559e-05
60 *288:98 *1506:CLK 0.000245703
61 *288:98 *333:91 0.000131615
62 *288:98 *333:98 0.000199867
*RES
1 *1542:X *333:4 23 
2 *333:4 *333:10 19.8886 
3 *333:10 *333:16 25.1707 
4 *333:16 *333:20 26.5793 
5 *333:20 *333:22 6.48357 
6 *333:22 *333:24 2.61 
7 *333:24 *1466:CLK 40.9621 
8 *333:24 *333:39 28.0293 
9 *333:39 *1505:CLK 23 
10 *333:39 *1455:CLK 31.7207 
11 *333:22 *1489:CLK 40.5271 
12 *333:20 *1469:CLK 40.2579 
13 *333:16 *1508:CLK 23.4971 
14 *333:10 *1458:CLK 42.9093 
15 *333:4 *333:91 8.14071 
16 *333:91 *1481:CLK 23 
17 *333:91 *333:98 5.38571 
18 *333:98 *333:108 39.0107 
19 *333:108 *1483:CLK 23 
20 *333:98 *1506:CLK 28.3857 
*END

*D_NET *334 0.0125992
*CONN
*I *1529:CLK I *D sky130_fd_sc_hd__dfxtp_1
*I *1497:CLK I *D sky130_fd_sc_hd__dfxtp_1
*I *1500:CLK I *D sky130_fd_sc_hd__dfxtp_1
*I *1532:CLK I *D sky130_fd_sc_hd__dfxtp_1
*I *1516:CLK I *D sky130_fd_sc_hd__dfxtp_1
*I *1468:CLK I *D sky130_fd_sc_hd__dfrtp_1
*I *1492:CLK I *D sky130_fd_sc_hd__dfxtp_1
*I *1513:CLK I *D sky130_fd_sc_hd__dfxtp_1
*I *1524:CLK I *D sky130_fd_sc_hd__dfxtp_1
*I *1484:CLK I *D sky130_fd_sc_hd__dfxtp_1
*I *1543:X O *D sky130_fd_sc_hd__clkbuf_16
*CAP
1 *1529:CLK 0.000157918
2 *1497:CLK 0.000201256
3 *1500:CLK 0
4 *1532:CLK 0.000309029
5 *1516:CLK 0
6 *1468:CLK 0.000470426
7 *1492:CLK 0.000355686
8 *1513:CLK 0
9 *1524:CLK 0
10 *1484:CLK 0.000326761
11 *1543:X 0.000105388
12 *334:104 0.000725006
13 *334:95 0.000417754
14 *334:86 0.000919444
15 *334:55 0.00139523
16 *334:49 0.000608509
17 *334:42 0.000163855
18 *334:32 0.00106599
19 *334:23 0.000862753
20 *334:21 0.000819592
21 *334:8 0.000693247
22 *1484:CLK *438:69 0.00028312
23 *1484:CLK *455:39 0
24 *1492:CLK *430:29 0
25 *1497:CLK *459:10 2.04934e-05
26 *334:21 *455:39 0
27 *334:32 *1253:A 2.32672e-05
28 *334:32 *373:8 5.14746e-06
29 *334:42 *420:21 0
30 *334:55 *1648:A 0
31 *334:55 *420:10 0
32 *334:55 *420:21 0
33 *334:55 *430:29 0
34 *334:86 *422:14 0
35 *334:86 *507:8 4.08641e-05
36 *334:95 *389:8 2.10502e-05
37 *334:104 *1373:A1 0.000412269
38 *334:104 *389:8 0.000147995
39 *1224:A2 *1484:CLK 1.14452e-05
40 *1228:A2 *1497:CLK 8.15864e-05
41 *1228:B1 *1497:CLK 0.000144501
42 *1314:A *1492:CLK 2.30292e-05
43 *1373:S *334:104 2.95423e-05
44 *1500:D *334:104 5.73018e-05
45 *1516:D *334:32 1.52322e-05
46 *1532:D *1532:CLK 0.000369142
47 *43:10 *1492:CLK 0
48 *125:8 *334:21 0
49 *130:8 *1529:CLK 3.87236e-05
50 *133:8 *334:86 2.99194e-05
51 *142:128 *1484:CLK 0
52 *142:128 *334:21 0
53 *142:128 *334:86 0
54 *142:132 *334:86 0
55 *196:8 *1492:CLK 0
56 *223:10 *334:32 5.2621e-05
57 *254:61 *1492:CLK 9.39159e-05
58 *254:74 *334:8 5.47808e-05
59 *283:8 *1529:CLK 0
60 *299:59 *334:21 0.000239243
61 *299:59 *334:86 0.000181943
62 *319:120 *334:104 0.000624234
*RES
1 *1543:X *334:8 39.5743 
2 *334:8 *1484:CLK 44.67 
3 *334:8 *334:21 5.075 
4 *334:21 *334:23 15 
5 *334:23 *1524:CLK 23 
6 *334:23 *334:32 11.4757 
7 *334:32 *334:42 32.6721 
8 *334:42 *1513:CLK 23 
9 *334:32 *334:49 0.849286 
10 *334:49 *334:55 25.0257 
11 *334:55 *1492:CLK 45.105 
12 *334:55 *1468:CLK 44.235 
13 *334:49 *1516:CLK 23 
14 *334:21 *334:86 26.0614 
15 *334:86 *1532:CLK 29.815 
16 *334:86 *334:95 1.09786 
17 *334:95 *1500:CLK 23 
18 *334:95 *334:104 26.1029 
19 *334:104 *1497:CLK 42.1843 
20 *334:104 *1529:CLK 40.9621 
*END

*D_NET *335 0.0173125
*CONN
*I *1459:CLK I *D sky130_fd_sc_hd__dfxtp_1
*I *1504:CLK I *D sky130_fd_sc_hd__dfxtp_1
*I *1454:CLK I *D sky130_fd_sc_hd__dfxtp_1
*I *1480:CLK I *D sky130_fd_sc_hd__dfxtp_1
*I *1485:CLK I *D sky130_fd_sc_hd__dfxtp_1
*I *1465:CLK I *D sky130_fd_sc_hd__dfrtp_1
*I *1509:CLK I *D sky130_fd_sc_hd__dfxtp_1
*I *1490:CLK I *D sky130_fd_sc_hd__dfxtp_1
*I *1456:CLK I *D sky130_fd_sc_hd__dfxtp_1
*I *1523:CLK I *D sky130_fd_sc_hd__dfxtp_1
*I *1493:CLK I *D sky130_fd_sc_hd__dfxtp_1
*I *1544:X O *D sky130_fd_sc_hd__clkbuf_16
*CAP
1 *1459:CLK 0
2 *1504:CLK 0.000190053
3 *1454:CLK 0
4 *1480:CLK 0.000326887
5 *1485:CLK 0.000350358
6 *1465:CLK 0
7 *1509:CLK 0
8 *1490:CLK 0
9 *1456:CLK 0.000229844
10 *1523:CLK 0.000314717
11 *1493:CLK 0
12 *1544:X 6.93947e-05
13 *335:112 0.000677245
14 *335:110 0.000273507
15 *335:106 0.00072445
16 *335:99 0.00050461
17 *335:89 0.000810054
18 *335:85 0.000700636
19 *335:63 0.000433576
20 *335:40 0.000848817
21 *335:27 0.00100569
22 *335:16 0.00104513
23 *335:12 0.000641042
24 *335:8 0.000826959
25 *1480:CLK *1261:A1 0.000252298
26 *1480:CLK *393:14 1.18862e-05
27 *1504:CLK *345:20 0.000235678
28 *1523:CLK *340:10 4.08641e-05
29 *335:12 *350:14 8.72173e-05
30 *335:16 *350:6 7.62369e-05
31 *335:27 *1239:A1 5.97178e-05
32 *335:63 *433:63 0.00013499
33 *335:85 *1221:A1 5.45286e-05
34 *335:85 *438:104 0.000167632
35 *335:99 *1300:A1 0.000523699
36 *335:106 *345:20 0.000134521
37 *335:106 *471:8 5.1233e-05
38 *335:110 *1329:A1 9.63041e-05
39 *335:110 *393:10 0.000110332
40 *335:110 *401:76 9.2057e-05
41 *1221:A2 *335:106 6.5117e-06
42 *1221:B2 *335:85 5.82853e-05
43 *1239:A2 *335:27 0.000313249
44 *1239:B1 *335:27 0.00014196
45 *1261:A2 *1480:CLK 1.59071e-05
46 *1340:A *1485:CLK 0.000140931
47 *1352:A *335:63 5.47927e-05
48 *1427:A *335:27 5.41288e-05
49 *1454:D *335:110 0.000110526
50 *1465:D *335:99 2.93335e-05
51 *1490:D *335:63 0.000127311
52 *1493:D *335:16 5.92579e-05
53 *1509:D *335:16 0.000136738
54 *60:10 *335:99 1.97402e-05
55 *60:10 *335:106 6.35755e-05
56 *158:135 *335:63 0.000333866
57 *158:158 *1504:CLK 0.000247106
58 *158:158 *335:106 2.11066e-05
59 *158:170 *1485:CLK 1.61901e-05
60 *163:98 *1485:CLK 5.0977e-05
61 *165:90 *335:99 4.78057e-05
62 *165:90 *335:106 2.97779e-05
63 *166:135 *335:106 5.71002e-06
64 *167:65 *335:63 0.000109052
65 *167:101 *335:99 1.37232e-05
66 *176:77 *335:12 4.35499e-05
67 *176:77 *335:85 0
68 *189:10 *335:99 0.000248732
69 *190:8 *335:85 8.17934e-05
70 *194:16 *335:99 1.91454e-05
71 *210:12 *1523:CLK 0
72 *211:8 *335:27 5.67058e-05
73 *211:16 *335:40 0.000153395
74 *211:16 *335:63 0.000142113
75 *227:10 *335:8 9.84851e-05
76 *227:10 *335:99 6.82228e-06
77 *245:81 *1456:CLK 0.000214388
78 *245:121 *335:99 2.93747e-05
79 *246:10 *1480:CLK 1.22906e-05
80 *246:10 *1485:CLK 9.96609e-05
81 *251:10 *335:99 0.000173716
82 *251:10 *335:106 9.4464e-05
83 *258:40 *1523:CLK 5.67058e-05
84 *258:104 *1480:CLK 0.00014411
85 *288:98 *1456:CLK 0.000151445
86 *288:121 *335:85 5.67107e-05
87 *294:10 *335:12 3.62323e-05
88 *294:10 *335:85 3.82956e-05
89 *299:22 *1523:CLK 0.000178315
90 *299:22 *335:40 0.00010144
91 *299:22 *335:63 0.000155358
92 *299:109 *1480:CLK 0.00015954
93 *299:109 *1485:CLK 0.000190301
94 *309:23 *1523:CLK 0
95 *309:23 *335:40 0
96 *319:66 *335:85 0
97 *328:20 *335:16 0.000193772
98 *328:20 *335:27 6.59377e-05
*RES
1 *1544:X *335:8 39.0979 
2 *335:8 *335:12 17.2579 
3 *335:12 *335:16 11.6 
4 *335:16 *1493:CLK 23 
5 *335:16 *335:27 25.6471 
6 *335:27 *1523:CLK 45.105 
7 *335:27 *335:40 4.72286 
8 *335:40 *1456:CLK 43.4271 
9 *335:40 *335:63 27.2836 
10 *335:63 *1490:CLK 23 
11 *335:12 *1509:CLK 23 
12 *335:8 *335:85 26.9729 
13 *335:85 *335:89 15.6214 
14 *335:89 *335:99 28.1536 
15 *335:99 *1465:CLK 23 
16 *335:89 *335:106 5.42714 
17 *335:106 *335:110 20.3857 
18 *335:110 *335:112 15 
19 *335:112 *1485:CLK 45.54 
20 *335:112 *1480:CLK 45.2086 
21 *335:110 *1454:CLK 23 
22 *335:106 *1504:CLK 42.4329 
23 *335:85 *1459:CLK 23 
*END

*D_NET *336 0.0164552
*CONN
*I *1482:CLK I *D sky130_fd_sc_hd__dfxtp_1
*I *1464:CLK I *D sky130_fd_sc_hd__dfrtp_1
*I *1512:CLK I *D sky130_fd_sc_hd__dfxtp_1
*I *1520:CLK I *D sky130_fd_sc_hd__dfxtp_1
*I *1496:CLK I *D sky130_fd_sc_hd__dfxtp_1
*I *1528:CLK I *D sky130_fd_sc_hd__dfxtp_1
*I *1530:CLK I *D sky130_fd_sc_hd__dfxtp_1
*I *1498:CLK I *D sky130_fd_sc_hd__dfxtp_1
*I *1522:CLK I *D sky130_fd_sc_hd__dfxtp_1
*I *1514:CLK I *D sky130_fd_sc_hd__dfxtp_1
*I *1488:CLK I *D sky130_fd_sc_hd__dfxtp_1
*I *1467:CLK I *D sky130_fd_sc_hd__dfrtp_1
*I *1521:CLK I *D sky130_fd_sc_hd__dfxtp_1
*I *1545:X O *D sky130_fd_sc_hd__clkbuf_16
*CAP
1 *1482:CLK 0
2 *1464:CLK 0.0001818
3 *1512:CLK 0
4 *1520:CLK 3.3043e-05
5 *1496:CLK 0
6 *1528:CLK 0
7 *1530:CLK 0
8 *1498:CLK 8.74738e-05
9 *1522:CLK 8.77358e-05
10 *1514:CLK 0.000163794
11 *1488:CLK 0.000186055
12 *1467:CLK 0.000152276
13 *1521:CLK 2.83549e-05
14 *1545:X 0.000241352
15 *336:152 0.000124372
16 *336:144 0.00122306
17 *336:133 0.00132957
18 *336:116 0.000152148
19 *336:99 0.000511453
20 *336:97 0.000586349
21 *336:87 0.000664057
22 *336:70 0.000506379
23 *336:66 0.000718056
24 *336:55 0.000835639
25 *336:40 0.000687101
26 *336:34 0.000450474
27 *336:12 0.00050784
28 *336:6 0.000920526
29 *1464:CLK *1402:A0 9.40164e-05
30 *1488:CLK *339:10 0
31 *1488:CLK *339:14 5.50049e-05
32 *1488:CLK *339:31 0
33 *1498:CLK *1442:A1 0.000140093
34 *1514:CLK *419:27 4.6437e-05
35 *1520:CLK *1244:A 2.02517e-05
36 *1522:CLK *1582:A 9.17507e-05
37 *336:40 *433:76 7.95833e-05
38 *336:55 *339:10 0
39 *336:55 *339:31 0
40 *336:66 *419:27 0.000100098
41 *336:70 *403:10 8.62876e-05
42 *336:70 *419:27 2.3529e-05
43 *336:87 *419:27 0.000183145
44 *336:99 *1442:A1 0.000132824
45 *336:116 *1246:B2 3.23684e-05
46 *336:116 *386:25 0.000219079
47 *336:116 *434:12 0.00010565
48 *336:133 *371:6 0.000141954
49 *336:133 *419:27 2.62931e-05
50 *336:152 *401:36 0.000110922
51 *1263:A2 *1464:CLK 0
52 *1263:A2 *336:144 8.74118e-05
53 *1265:A2 *1522:CLK 0.000271906
54 *1334:A *336:34 0.000568886
55 *1496:D *336:87 3.24476e-06
56 *1498:D *1498:CLK 1.64354e-05
57 *1520:D *336:144 4.9054e-06
58 *42:8 *1467:CLK 0
59 *83:8 *336:34 2.82257e-05
60 *83:8 *336:40 0.000129529
61 *89:10 *1488:CLK 4.6318e-06
62 *115:10 *336:55 0.000111445
63 *123:14 *336:55 0.000212368
64 *160:150 *336:144 3.70553e-06
65 *160:154 *336:133 5.27215e-06
66 *160:154 *336:144 4.48931e-05
67 *163:66 *1467:CLK 2.05503e-05
68 *163:66 *336:12 3.55303e-05
69 *163:80 *336:6 0.000313255
70 *163:80 *336:34 0.000356724
71 *163:86 *336:34 0.000364826
72 *163:86 *336:40 9.34971e-05
73 *176:87 *336:116 0
74 *212:10 *1467:CLK 3.98496e-05
75 *212:10 *1521:CLK 2.4754e-05
76 *226:14 *336:12 0
77 *231:8 *336:152 0.000113153
78 *232:16 *336:144 0.000137625
79 *254:82 *1521:CLK 3.71251e-05
80 *268:124 *1488:CLK 2.30292e-05
81 *278:87 *336:97 0.000203518
82 *299:22 *1467:CLK 2.12347e-06
83 *299:22 *336:12 3.81554e-05
84 *299:34 *1467:CLK 2.05503e-05
85 *299:34 *1521:CLK 5.50049e-05
86 *299:80 *1467:CLK 9.36747e-06
87 *299:80 *336:55 4.95487e-06
88 *302:10 *336:55 0
89 *302:10 *336:70 0.00013449
90 *302:10 *336:87 0.000206558
91 *319:84 *336:55 0
92 *319:104 *1498:CLK 9.79349e-05
93 *319:104 *336:97 1.83327e-05
94 *319:104 *336:99 0.000196051
95 *328:135 *336:34 0.000347205
*RES
1 *1545:X *336:6 26.9564 
2 *336:6 *336:12 19.785 
3 *336:12 *1521:CLK 39.0979 
4 *336:12 *1467:CLK 40.61 
5 *336:6 *336:34 12.905 
6 *336:34 *336:40 18.5007 
7 *336:40 *1488:CLK 41.2314 
8 *336:40 *336:55 21.8357 
9 *336:55 *1514:CLK 25.4236 
10 *336:55 *336:66 3.48 
11 *336:66 *336:70 16.9057 
12 *336:70 *1522:CLK 41.0036 
13 *336:70 *336:87 22.4986 
14 *336:87 *336:97 36.5871 
15 *336:97 *336:99 5.86214 
16 *336:99 *1498:CLK 26.0036 
17 *336:99 *336:116 34.0807 
18 *336:116 *1530:CLK 23 
19 *336:97 *1528:CLK 23 
20 *336:87 *1496:CLK 23 
21 *336:66 *336:133 4.90929 
22 *336:133 *1520:CLK 23.8493 
23 *336:133 *336:144 12.5529 
24 *336:144 *336:152 32.4029 
25 *336:152 *1512:CLK 23 
26 *336:144 *1464:CLK 26.5007 
27 *336:34 *1482:CLK 23 
*END

*D_NET *337 0.00326698
*CONN
*I *1266:A1 I *D sky130_fd_sc_hd__o22a_1
*I *1592:A I *D sky130_fd_sc_hd__dlygate4sd3_1
*I *1480:Q O *D sky130_fd_sc_hd__dfxtp_1
*CAP
1 *1266:A1 0
2 *1592:A 0.000160181
3 *1480:Q 0
4 *337:25 0.000815022
5 *337:6 0.000975203
6 *1592:A *431:16 0.000277705
7 *337:25 *410:10 5.56193e-05
8 *337:25 *431:16 0.000114083
9 *1266:B1 *337:25 0.000180218
10 *55:10 *337:25 0.000223698
11 *163:86 *337:25 0.000139781
12 *163:125 *337:25 8.17543e-05
13 *166:135 *337:25 2.93845e-05
14 *235:10 *337:25 2.16575e-05
15 *254:113 *1592:A 0.000143126
16 *254:113 *337:25 4.95442e-05
*RES
1 *1480:Q *337:6 38 
2 *337:6 *1592:A 42.7643 
3 *337:6 *337:25 31.4886 
4 *337:25 *1266:A1 23 
*END

*D_NET *338 0.00164327
*CONN
*I *1549:A I *D sky130_fd_sc_hd__dlygate4sd3_1
*I *1257:A1 I *D sky130_fd_sc_hd__o22a_1
*I *1481:Q O *D sky130_fd_sc_hd__dfxtp_1
*CAP
1 *1549:A 8.35586e-05
2 *1257:A1 0.000296432
3 *1481:Q 0.000128329
4 *338:8 0.000508319
5 *222:8 *1257:A1 3.16799e-05
6 *226:14 *1257:A1 0.00021425
7 *226:14 *1549:A 0.000137754
8 *245:81 *338:8 0.000188927
9 *258:56 *1257:A1 5.40241e-05
*RES
1 *1481:Q *338:8 40.0507 
2 *338:8 *1257:A1 44.0071 
3 *338:8 *1549:A 39.9057 
*END

*D_NET *339 0.0040149
*CONN
*I *1596:A I *D sky130_fd_sc_hd__dlygate4sd3_1
*I *1248:A1 I *D sky130_fd_sc_hd__o22a_1
*I *1482:Q O *D sky130_fd_sc_hd__dfxtp_1
*CAP
1 *1596:A 0
2 *1248:A1 0.000199725
3 *1482:Q 0.000213284
4 *339:31 0.000339401
5 *339:14 0.000847333
6 *339:10 0.000521492
7 *1248:A1 *1333:A0 0.000141052
8 *339:10 *433:76 3.18969e-05
9 *339:31 *433:20 1.26859e-05
10 *339:31 *433:22 6.7177e-06
11 *339:31 *498:8 0.000286534
12 *1248:B2 *1248:A1 0.0001096
13 *1425:A *339:31 0.00023274
14 *1488:CLK *339:10 0
15 *1488:CLK *339:14 5.50049e-05
16 *1488:CLK *339:31 0
17 *1488:D *339:14 1.64354e-05
18 *163:86 *339:10 0.000137651
19 *216:16 *339:31 0.00023274
20 *258:85 *1248:A1 0.000383222
21 *258:104 *1248:A1 2.4754e-05
22 *258:104 *339:14 2.18409e-05
23 *268:124 *339:14 0.00010076
24 *319:84 *339:10 0.000100029
25 *336:55 *339:10 0
26 *336:55 *339:31 0
*RES
1 *1482:Q *339:10 42.5364 
2 *339:10 *339:14 20.8621 
3 *339:14 *1248:A1 28.4064 
4 *339:14 *339:31 37.6021 
5 *339:31 *1596:A 23 
*END

*D_NET *340 0.0015529
*CONN
*I *1239:A1 I *D sky130_fd_sc_hd__o22a_1
*I *1590:A I *D sky130_fd_sc_hd__dlygate4sd3_1
*I *1483:Q O *D sky130_fd_sc_hd__dfxtp_1
*CAP
1 *1239:A1 0.000262055
2 *1590:A 2.68551e-05
3 *1483:Q 0.000270976
4 *340:14 0.000312392
5 *340:10 0.000294459
6 *340:10 *425:18 4.8033e-05
7 *1239:B1 *1239:A1 9.45591e-05
8 *1239:B1 *1590:A 5.67058e-05
9 *1523:CLK *340:10 4.08641e-05
10 *299:22 *340:10 8.62876e-05
11 *335:27 *1239:A1 5.97178e-05
*RES
1 *1483:Q *340:10 41.7286 
2 *340:10 *340:14 15.4971 
3 *340:14 *1590:A 24.1186 
4 *340:14 *1239:A1 27.93 
*END

*D_NET *341 0.00178334
*CONN
*I *1564:A I *D sky130_fd_sc_hd__dlygate4sd3_1
*I *1230:A1 I *D sky130_fd_sc_hd__o22a_1
*I *1484:Q O *D sky130_fd_sc_hd__dfxtp_1
*CAP
1 *1564:A 0.000217752
2 *1230:A1 0
3 *1484:Q 7.78031e-05
4 *341:18 0.000320733
5 *341:6 0.000616288
6 *1564:A *438:69 7.82593e-05
7 *341:6 *438:69 1.30878e-05
8 *341:6 *467:10 5.72975e-05
9 *341:18 *1298:A1 0
10 *341:18 *455:50 0
11 *341:18 *467:10 0
12 *1332:A *341:18 8.45174e-05
13 *166:46 *341:18 1.20996e-05
14 *202:22 *341:18 1.00493e-05
15 *258:60 *341:18 0.000165947
16 *258:85 *341:18 0.000129504
*RES
1 *1484:Q *341:6 24.0979 
2 *341:6 *341:18 37.0636 
3 *341:18 *1230:A1 23 
4 *341:6 *1564:A 26.3764 
*END

*D_NET *342 0.0038401
*CONN
*I *1594:A I *D sky130_fd_sc_hd__dlygate4sd3_1
*I *1221:A1 I *D sky130_fd_sc_hd__o22a_1
*I *1485:Q O *D sky130_fd_sc_hd__dfxtp_1
*CAP
1 *1594:A 9.71876e-05
2 *1221:A1 0.00111557
3 *1485:Q 0.000127556
4 *342:12 0.00121275
5 *342:10 0.000127556
6 *1221:A1 *1216:A1 0.000229804
7 *1221:A1 *1339:A0 0.000233047
8 *342:10 *431:16 0.000166387
9 *1459:D *1221:A1 1.00591e-05
10 *158:170 *1221:A1 0.000162486
11 *190:8 *1221:A1 5.63717e-05
12 *254:113 *342:10 8.07477e-05
13 *258:122 *1221:A1 0.000166049
14 *335:85 *1221:A1 5.45286e-05
*RES
1 *1485:Q *342:10 40.8793 
2 *342:10 *342:12 15 
3 *342:12 *1221:A1 42.43 
4 *342:12 *1594:A 24.5743 
*END

*D_NET *343 0.00286328
*CONN
*I *1587:A I *D sky130_fd_sc_hd__dlygate4sd3_1
*I *1212:A1 I *D sky130_fd_sc_hd__o22a_1
*I *1486:Q O *D sky130_fd_sc_hd__dfxtp_1
*CAP
1 *1587:A 5.74915e-05
2 *1212:A1 0.000547211
3 *1486:Q 8.82946e-05
4 *343:10 0.000604702
5 *343:8 8.82946e-05
6 *1212:A1 *1341:A0 0.000226975
7 *1212:A1 *351:31 2.02517e-05
8 *1212:A1 *477:12 9.45591e-05
9 *1212:A1 *477:22 0.000158034
10 *1587:A *477:12 2.18409e-05
11 *343:8 *413:12 0.000169683
12 *1212:B1 *1212:A1 0.000181098
13 *1341:S *1212:A1 0.000604843
*RES
1 *1486:Q *343:8 40.2579 
2 *343:8 *343:10 15 
3 *343:10 *1212:A1 36.8993 
4 *343:10 *1587:A 24.0979 
*END

*D_NET *344 0.00138015
*CONN
*I *1203:A1 I *D sky130_fd_sc_hd__o22a_1
*I *1584:A I *D sky130_fd_sc_hd__dlygate4sd3_1
*I *1487:Q O *D sky130_fd_sc_hd__dfxtp_1
*CAP
1 *1203:A1 0
2 *1584:A 0.000125838
3 *1487:Q 0.000422423
4 *344:21 0.000106373
5 *344:6 0.000654633
6 *1342:A *1584:A 4.00259e-06
7 *1486:D *1584:A 0
8 *1519:CLK *344:21 0
9 *186:14 *344:21 6.68793e-05
*RES
1 *1487:Q *344:6 28.8621 
2 *344:6 *1584:A 25.9 
3 *344:6 *344:21 31.9057 
4 *344:21 *1203:A1 23 
*END

*D_NET *345 0.00447594
*CONN
*I *1567:A I *D sky130_fd_sc_hd__dlygate4sd3_1
*I *1260:B2 I *D sky130_fd_sc_hd__a22o_1
*I *1488:Q O *D sky130_fd_sc_hd__dfxtp_1
*CAP
1 *1567:A 7.09604e-05
2 *1260:B2 0
3 *1488:Q 0.000340617
4 *345:20 0.000772727
5 *345:12 0.0011843
6 *1567:A *401:54 0.000132665
7 *345:12 *361:8 0.000223687
8 *345:20 *1260:A1 0.000178391
9 *345:20 *401:54 0.000345949
10 *345:20 *438:96 3.97422e-05
11 *1384:A *345:20 0
12 *1504:CLK *345:20 0.000235678
13 *1504:D *345:12 0.000565972
14 *158:158 *345:20 1.22803e-05
15 *165:90 *1567:A 0
16 *165:90 *345:20 0
17 *166:118 *345:20 0.000100486
18 *166:135 *345:20 3.21898e-05
19 *167:101 *345:20 4.22172e-05
20 *229:16 *345:20 5.69157e-05
21 *245:102 *345:20 6.63793e-06
22 *335:106 *345:20 0.000134521
*RES
1 *1488:Q *345:12 45.8093 
2 *345:12 *345:20 28.92 
3 *345:20 *1260:B2 23 
4 *345:12 *1567:A 39.9057 
*END

*D_NET *346 0.00119224
*CONN
*I *1251:B2 I *D sky130_fd_sc_hd__a22o_1
*I *1574:A I *D sky130_fd_sc_hd__dlygate4sd3_1
*I *1489:Q O *D sky130_fd_sc_hd__dfxtp_1
*CAP
1 *1251:B2 7.77151e-05
2 *1574:A 0
3 *1489:Q 8.10993e-05
4 *346:16 0.00049892
5 *346:8 0.000502304
6 *346:16 *1615:A 3.22051e-05
*RES
1 *1489:Q *346:8 39.2014 
2 *346:8 *346:16 21.8564 
3 *346:16 *1574:A 23 
4 *346:16 *1251:B2 24.5743 
*END

*D_NET *347 0.000874617
*CONN
*I *1577:A I *D sky130_fd_sc_hd__dlygate4sd3_1
*I *1242:B2 I *D sky130_fd_sc_hd__a22o_1
*I *1490:Q O *D sky130_fd_sc_hd__dfxtp_1
*CAP
1 *1577:A 0.000103275
2 *1242:B2 0.000103642
3 *1490:Q 9.63283e-05
4 *347:8 0.000303245
5 *1242:B2 *363:24 2.08324e-05
6 *167:65 *347:8 0.000141954
7 *211:16 *1242:B2 1.88491e-05
8 *211:16 *1577:A 0
9 *309:23 *1242:B2 2.31304e-05
10 *309:23 *1577:A 6.33614e-05
*RES
1 *1490:Q *347:8 39.5743 
2 *347:8 *1242:B2 39.9679 
3 *347:8 *1577:A 39.9057 
*END

*D_NET *348 0.00268657
*CONN
*I *1233:B2 I *D sky130_fd_sc_hd__a22o_1
*I *1566:A I *D sky130_fd_sc_hd__dlygate4sd3_1
*I *1491:Q O *D sky130_fd_sc_hd__dfxtp_1
*CAP
1 *1233:B2 0
2 *1566:A 0.000146157
3 *1491:Q 0.000153739
4 *348:25 0.000535631
5 *348:8 0.000835526
6 *1566:A *444:31 8.21165e-05
7 *348:25 *364:8 2.93747e-05
8 *348:25 *444:31 0
9 *1507:D *348:25 0.000131225
10 *163:14 *348:8 6.23442e-05
11 *268:37 *1566:A 0.000139856
12 *268:37 *348:25 0.000284699
13 *330:16 *348:25 0.000266421
14 *330:24 *348:25 1.94812e-05
*RES
1 *1491:Q *348:8 40.0507 
2 *348:8 *1566:A 41.48 
3 *348:8 *348:25 27.2629 
4 *348:25 *1233:B2 23 
*END

*D_NET *349 0.00140325
*CONN
*I *1224:B2 I *D sky130_fd_sc_hd__a22o_1
*I *1583:A I *D sky130_fd_sc_hd__dlygate4sd3_1
*I *1492:Q O *D sky130_fd_sc_hd__dfxtp_1
*CAP
1 *1224:B2 0.000161476
2 *1583:A 0
3 *1492:Q 0.000269517
4 *349:8 0.000430993
5 *1224:B2 *1224:A1 0.00010018
6 *1224:B2 *365:16 0.00010018
7 *1224:B2 *455:33 0.000151601
8 *1224:B2 *455:48 0.00012377
9 *349:8 *365:16 0
10 *349:8 *455:33 9.8971e-06
11 *349:8 *485:10 5.56356e-05
*RES
1 *1492:Q *349:8 27.8057 
2 *349:8 *1583:A 23 
3 *349:8 *1224:B2 28.3857 
*END

*D_NET *350 0.00295554
*CONN
*I *1215:B2 I *D sky130_fd_sc_hd__a22o_1
*I *1572:A I *D sky130_fd_sc_hd__dlygate4sd3_1
*I *1493:Q O *D sky130_fd_sc_hd__dfxtp_1
*CAP
1 *1215:B2 0
2 *1572:A 0
3 *1493:Q 0.000273064
4 *350:27 0.000471351
5 *350:14 0.000324535
6 *350:6 0.00106895
7 *350:14 *1219:B2 5.50049e-05
8 *1509:D *350:6 4.67488e-05
9 *1509:D *350:27 6.95239e-05
10 *160:97 *350:14 3.22879e-05
11 *176:64 *350:14 2.76611e-06
12 *176:77 *350:14 0.000122363
13 *194:16 *350:27 0
14 *288:121 *350:27 8.16356e-05
15 *294:10 *350:14 0.000216721
16 *319:66 *350:14 0
17 *332:74 *350:14 2.71291e-05
18 *335:12 *350:14 8.72173e-05
19 *335:16 *350:6 7.62369e-05
*RES
1 *1493:Q *350:6 26.48 
2 *350:6 *350:14 37.4571 
3 *350:14 *1572:A 23 
4 *350:6 *350:27 36.6907 
5 *350:27 *1215:B2 23 
*END

*D_NET *351 0.00282138
*CONN
*I *1581:A I *D sky130_fd_sc_hd__dlygate4sd3_1
*I *1206:B2 I *D sky130_fd_sc_hd__a22o_1
*I *1494:Q O *D sky130_fd_sc_hd__dfxtp_1
*CAP
1 *1581:A 0
2 *1206:B2 0
3 *1494:Q 0
4 *351:31 0.000603433
5 *351:12 0.000189005
6 *351:4 0.000792438
7 *351:31 *1343:A0 0.000271476
8 *351:31 *477:36 6.17437e-06
9 *1206:A2 *351:31 5.38471e-05
10 *1212:A1 *351:31 2.02517e-05
11 *1341:S *351:31 8.82787e-05
12 *1359:S *351:12 6.08617e-05
13 *1359:S *351:31 0.000228233
14 *163:199 *351:12 0.000189054
15 *168:48 *351:12 0.000189894
16 *179:12 *351:31 8.44611e-05
17 *258:14 *351:31 4.39725e-05
*RES
1 *1494:Q *351:4 23 
2 *351:4 *351:12 34.1843 
3 *351:12 *1206:B2 23 
4 *351:4 *351:31 42.9464 
5 *351:31 *1581:A 23 
*END

*D_NET *352 0.00177566
*CONN
*I *1193:B2 I *D sky130_fd_sc_hd__a22o_1
*I *1573:A I *D sky130_fd_sc_hd__dlygate4sd3_1
*I *1495:Q O *D sky130_fd_sc_hd__dfxtp_1
*CAP
1 *1193:B2 4.31367e-05
2 *1573:A 0
3 *1495:Q 0.000401001
4 *352:12 4.31367e-05
5 *352:10 0.000401001
6 *1193:B2 *368:25 0.000182832
7 *163:199 *352:10 3.81803e-05
8 *168:38 *1193:B2 0.000182832
9 *268:75 *352:10 6.91938e-05
10 *331:23 *352:10 5.56356e-05
11 *331:34 *352:10 0.000358711
*RES
1 *1495:Q *352:10 44.3386 
2 *352:10 *352:12 15 
3 *352:12 *1573:A 23 
4 *352:12 *1193:B2 25.0507 
*END

*D_NET *353 0.00106124
*CONN
*I *1595:A I *D sky130_fd_sc_hd__dlygate4sd3_1
*I *1264:A1 I *D sky130_fd_sc_hd__a22o_1
*I *1496:Q O *D sky130_fd_sc_hd__dfxtp_1
*CAP
1 *1595:A 0
2 *1264:A1 2.89424e-05
3 *1496:Q 0.000165454
4 *353:21 0.00028381
5 *353:6 0.000478207
6 *353:6 *385:12 3.26241e-05
7 *353:21 *401:27 0
8 *1264:A2 *1264:A1 3.26241e-05
9 *1264:A2 *353:6 3.95777e-05
10 *279:10 *353:21 0
*RES
1 *1496:Q *353:6 25.5271 
2 *353:6 *1264:A1 24.1186 
3 *353:6 *353:21 34.7229 
4 *353:21 *1595:A 23 
*END

*D_NET *354 0.000963324
*CONN
*I *1255:A1 I *D sky130_fd_sc_hd__a22o_1
*I *1560:A I *D sky130_fd_sc_hd__dlygate4sd3_1
*I *1497:Q O *D sky130_fd_sc_hd__dfxtp_1
*CAP
1 *1255:A1 0.000157637
2 *1560:A 1.64118e-05
3 *1497:Q 0.000156587
4 *354:6 0.000330636
5 *1228:A2 *1255:A1 0.000104578
6 *1228:A2 *354:6 0.000182695
7 *1228:B1 *1255:A1 1.47795e-05
*RES
1 *1497:Q *354:6 26.48 
2 *354:6 *1560:A 23.4971 
3 *354:6 *1255:A1 26.3764 
*END

*D_NET *355 0.00120834
*CONN
*I *1550:A I *D sky130_fd_sc_hd__dlygate4sd3_1
*I *1246:A1 I *D sky130_fd_sc_hd__a22o_1
*I *1498:Q O *D sky130_fd_sc_hd__dfxtp_1
*CAP
1 *1550:A 8.50839e-05
2 *1246:A1 0.000128506
3 *1498:Q 9.87377e-05
4 *355:10 0.00021359
5 *355:8 9.87377e-05
6 *355:8 *433:14 1.4471e-05
7 *355:8 *452:8 8.60837e-05
8 *176:87 *1246:A1 0.000262831
9 *176:87 *1550:A 0.000220302
10 *278:87 *355:8 0
*RES
1 *1498:Q *355:8 39.9057 
2 *355:8 *355:10 15 
3 *355:10 *1246:A1 26.0243 
4 *355:10 *1550:A 25.5271 
*END

*D_NET *356 0.00182762
*CONN
*I *1612:A I *D sky130_fd_sc_hd__dlygate4sd3_1
*I *1237:A1 I *D sky130_fd_sc_hd__a22o_1
*I *1499:Q O *D sky130_fd_sc_hd__dfxtp_1
*CAP
1 *1612:A 5.36262e-05
2 *1237:A1 0.000283796
3 *1499:Q 0.000147345
4 *356:8 0.000484767
5 *1237:A1 *434:12 0.000287084
6 *1612:A *434:12 0.000130946
7 *1237:A2 *1237:A1 5.55743e-06
8 *172:26 *1237:A1 9.52071e-05
9 *172:26 *1612:A 6.68378e-05
10 *175:14 *1237:A1 3.26241e-05
11 *175:33 *1237:A1 5.76187e-05
12 *176:34 *356:8 0.00018221
*RES
1 *1499:Q *356:8 40.0507 
2 *356:8 *1237:A1 44.09 
3 *356:8 *1612:A 39.9057 
*END

*D_NET *357 0.000771329
*CONN
*I *1556:A I *D sky130_fd_sc_hd__dlygate4sd3_1
*I *1228:A1 I *D sky130_fd_sc_hd__a22o_1
*I *1500:Q O *D sky130_fd_sc_hd__dfxtp_1
*CAP
1 *1556:A 6.47393e-05
2 *1228:A1 0
3 *1500:Q 0.000132471
4 *357:12 6.47393e-05
5 *357:10 0.000132471
6 *357:10 *1373:A1 5.511e-05
7 *1228:A2 *1556:A 5.62318e-05
8 *1228:B1 *1556:A 0.000200672
9 *201:10 *1556:A 9.09342e-06
10 *319:120 *357:10 5.58003e-05
*RES
1 *1500:Q *357:10 40.175 
2 *357:10 *357:12 15 
3 *357:12 *1228:A1 23 
4 *357:12 *1556:A 25.5479 
*END

*D_NET *358 0.00152936
*CONN
*I *1219:A1 I *D sky130_fd_sc_hd__a22o_1
*I *1547:A I *D sky130_fd_sc_hd__dlygate4sd3_1
*I *1501:Q O *D sky130_fd_sc_hd__dfxtp_1
*CAP
1 *1219:A1 0.000226526
2 *1547:A 0.000275279
3 *1501:Q 0
4 *358:6 0.000501805
5 *1547:A *1375:A0 5.76359e-05
6 *1219:A2 *1219:A1 5.3304e-05
7 *1375:S *1547:A 1.13812e-05
8 *160:97 *1219:A1 0.000180218
9 *165:90 *1219:A1 0
10 *175:63 *1219:A1 0.000112803
11 *175:63 *1547:A 6.47893e-05
12 *315:10 *1219:A1 0
13 *332:74 *1219:A1 4.56219e-05
*RES
1 *1501:Q *358:6 38 
2 *358:6 *1547:A 43.8621 
3 *358:6 *1219:A1 43.365 
*END

*D_NET *359 0.00346059
*CONN
*I *1568:A I *D sky130_fd_sc_hd__dlygate4sd3_1
*I *1210:A1 I *D sky130_fd_sc_hd__a22o_1
*I *1502:Q O *D sky130_fd_sc_hd__dfxtp_1
*CAP
1 *1568:A 0.000164917
2 *1210:A1 0
3 *1502:Q 0
4 *359:24 0.000252315
5 *359:16 0.000810282
6 *359:4 0.000722884
7 *359:16 *391:10 0.000179473
8 *359:16 *477:118 6.30955e-05
9 *359:24 *1210:B2 0.000114656
10 *359:24 *1548:A 1.21972e-05
11 *359:24 *391:10 0.000128534
12 *359:24 *477:118 6.5402e-05
13 *1201:B1 *359:16 0.000203655
14 *1210:A2 *359:24 5.3304e-05
15 *166:76 *1568:A 0.000174899
16 *166:76 *359:16 4.93086e-05
17 *176:45 *359:24 0.000318662
18 *268:86 *359:24 1.1644e-05
19 *285:10 *359:16 0.000135358
20 *332:29 *359:16 0
*RES
1 *1502:Q *359:4 23 
2 *359:4 *359:16 41.1236 
3 *359:16 *359:24 36.4421 
4 *359:24 *1210:A1 23 
5 *359:4 *1568:A 26.9771 
*END

*D_NET *360 0.00228372
*CONN
*I *1201:A1 I *D sky130_fd_sc_hd__a22o_1
*I *1578:A I *D sky130_fd_sc_hd__dlygate4sd3_1
*I *1503:Q O *D sky130_fd_sc_hd__dfxtp_1
*CAP
1 *1201:A1 0
2 *1578:A 0
3 *1503:Q 0.000145942
4 *360:27 0.000536739
5 *360:14 0.000104729
6 *360:6 0.00078741
7 *360:14 *488:51 5.50049e-05
8 *360:14 *488:108 4.96264e-05
9 *360:27 *488:32 0
10 *360:27 *488:108 0
11 *128:10 *360:27 0
12 *163:199 *360:14 6.08751e-05
13 *167:138 *360:14 2.30292e-05
14 *170:18 *360:6 0.000180218
15 *170:18 *360:27 0.00026808
16 *266:10 *360:27 0
17 *268:86 *360:14 9.20311e-06
18 *278:31 *360:27 6.28591e-05
19 *332:10 *360:27 0
*RES
1 *1503:Q *360:6 25.0507 
2 *360:6 *360:14 32.5271 
3 *360:14 *1578:A 23 
4 *360:6 *360:27 39.135 
5 *360:27 *1201:A1 23 
*END

*D_NET *361 0.00249503
*CONN
*I *1597:A I *D sky130_fd_sc_hd__dlygate4sd3_1
*I *1260:A1 I *D sky130_fd_sc_hd__a22o_1
*I *1504:Q O *D sky130_fd_sc_hd__dfxtp_1
*CAP
1 *1597:A 6.15021e-05
2 *1260:A1 0.000363077
3 *1504:Q 0.000172876
4 *361:8 0.000597454
5 *1260:A1 *470:8 0.00013753
6 *1597:A *470:8 4.08641e-05
7 *166:135 *1260:A1 0
8 *166:135 *1597:A 0
9 *167:101 *1260:A1 0.000137533
10 *175:74 *1260:A1 0.000434243
11 *175:74 *1597:A 0.000131735
12 *245:102 *1260:A1 1.61385e-05
13 *345:12 *361:8 0.000223687
14 *345:20 *1260:A1 0.000178391
*RES
1 *1504:Q *361:8 40.5271 
2 *361:8 *1260:A1 46.1821 
3 *361:8 *1597:A 39.9057 
*END

*D_NET *362 0.00171884
*CONN
*I *1251:A1 I *D sky130_fd_sc_hd__a22o_1
*I *1580:A I *D sky130_fd_sc_hd__dlygate4sd3_1
*I *1505:Q O *D sky130_fd_sc_hd__dfxtp_1
*CAP
1 *1251:A1 8.1701e-05
2 *1580:A 9.7478e-05
3 *1505:Q 0.000178968
4 *362:10 0.000358147
5 *1580:A *1385:A1 5.3304e-05
6 *1580:A *422:66 0.000241977
7 *1391:S *1251:A1 8.60703e-05
8 *1391:S *362:10 6.07611e-06
9 *1455:CLK *362:10 5.2894e-05
10 *242:14 *1251:A1 0.000190323
11 *242:14 *362:10 0.000136486
12 *288:76 *362:10 6.93449e-05
13 *288:90 *1580:A 0.000166072
*RES
1 *1505:Q *362:10 41.48 
2 *362:10 *1580:A 41.48 
3 *362:10 *1251:A1 40.61 
*END

*D_NET *363 0.00168939
*CONN
*I *1565:A I *D sky130_fd_sc_hd__dlygate4sd3_1
*I *1242:A1 I *D sky130_fd_sc_hd__a22o_1
*I *1506:Q O *D sky130_fd_sc_hd__dfxtp_1
*CAP
1 *1565:A 9.30963e-05
2 *1242:A1 0
3 *1506:Q 5.78746e-05
4 *363:24 0.00023086
5 *363:14 0.000388596
6 *363:8 0.000122515
7 *363:14 *1387:A1 1.35999e-05
8 *363:24 *438:92 2.64616e-05
9 *1242:A2 *363:24 0
10 *1242:B2 *363:24 2.08324e-05
11 *1387:S *363:14 1.9054e-05
12 *158:135 *363:24 2.11157e-05
13 *167:65 *363:24 5.3304e-05
14 *211:16 *363:8 8.52094e-06
15 *211:16 *363:24 0
16 *245:81 *363:8 0.000112396
17 *245:85 *1565:A 0.000171107
18 *245:85 *363:14 5.58003e-05
19 *288:98 *363:8 3.88629e-05
20 *288:111 *363:14 2.02872e-05
21 *309:23 *363:24 0.000235102
*RES
1 *1506:Q *363:8 39.5536 
2 *363:8 *363:14 16.595 
3 *363:14 *363:24 34.4329 
4 *363:24 *1242:A1 23 
5 *363:14 *1565:A 25.0507 
*END

*D_NET *364 0.00102518
*CONN
*I *1554:A I *D sky130_fd_sc_hd__dlygate4sd3_1
*I *1233:A1 I *D sky130_fd_sc_hd__a22o_1
*I *1507:Q O *D sky130_fd_sc_hd__dfxtp_1
*CAP
1 *1554:A 0
2 *1233:A1 0
3 *1507:Q 0.000173173
4 *364:21 0.000158253
5 *364:8 0.000331426
6 *364:8 *1233:B1 5.50106e-05
7 *364:21 *444:46 4.96717e-05
8 *158:83 *364:21 0
9 *158:91 *364:21 3.92407e-05
10 *167:25 *364:21 0.000169683
11 *205:12 *364:8 1.37232e-05
12 *330:16 *364:8 5.61848e-06
13 *348:25 *364:8 2.93747e-05
*RES
1 *1507:Q *364:8 25.5479 
2 *364:8 *1233:A1 23 
3 *364:8 *364:21 33.3557 
4 *364:21 *1554:A 23 
*END

*D_NET *365 0.00154511
*CONN
*I *1224:A1 I *D sky130_fd_sc_hd__a22o_1
*I *1571:A I *D sky130_fd_sc_hd__dlygate4sd3_1
*I *1508:Q O *D sky130_fd_sc_hd__dfxtp_1
*CAP
1 *1224:A1 0.000117021
2 *1571:A 0
3 *1508:Q 0.000236949
4 *365:16 0.000198656
5 *365:10 0.000318585
6 *1224:A1 *438:42 5.50106e-05
7 *1224:A1 *438:69 4.34745e-05
8 *1224:A1 *455:48 1.03836e-05
9 *365:10 *438:42 0
10 *1224:B2 *1224:A1 0.00010018
11 *1224:B2 *365:16 0.00010018
12 *1458:CLK *365:10 6.7177e-06
13 *59:8 *365:10 0.000111277
14 *242:14 *365:10 0.000146195
15 *333:16 *365:10 0.000100486
16 *349:8 *365:16 0
*RES
1 *1508:Q *365:10 43.1164 
2 *365:10 *365:16 16.9471 
3 *365:16 *1571:A 23 
4 *365:16 *1224:A1 26.1693 
*END

*D_NET *366 0.00136161
*CONN
*I *1215:A1 I *D sky130_fd_sc_hd__a22o_1
*I *1602:A I *D sky130_fd_sc_hd__dlygate4sd3_1
*I *1509:Q O *D sky130_fd_sc_hd__dfxtp_1
*CAP
1 *1215:A1 0
2 *1602:A 0.00025963
3 *1509:Q 0
4 *366:27 0.000293753
5 *366:4 0.000553383
6 *1602:A *472:10 2.93747e-05
7 *165:90 *366:27 2.45703e-05
8 *167:101 *366:27 3.08847e-05
9 *194:16 *366:27 9.10094e-05
10 *227:10 *366:27 7.52922e-05
11 *251:10 *366:27 3.7122e-06
*RES
1 *1509:Q *366:4 23 
2 *366:4 *1602:A 27.3293 
3 *366:4 *366:27 34.7436 
4 *366:27 *1215:A1 23 
*END

*D_NET *367 0.00168892
*CONN
*I *1206:A1 I *D sky130_fd_sc_hd__a22o_1
*I *1593:A I *D sky130_fd_sc_hd__dlygate4sd3_1
*I *1510:Q O *D sky130_fd_sc_hd__dfxtp_1
*CAP
1 *1206:A1 0
2 *1593:A 0.000242308
3 *1510:Q 0
4 *367:21 0.000389183
5 *367:4 0.000631491
6 *367:21 *477:36 0.000167327
7 *72:10 *367:21 7.03663e-05
8 *331:38 *367:21 8.43115e-05
9 *331:46 *1593:A 1.37232e-05
10 *331:46 *367:21 3.56537e-05
11 *331:105 *367:21 5.45541e-05
*RES
1 *1510:Q *367:4 23 
2 *367:4 *1593:A 27.3293 
3 *367:4 *367:21 38.2857 
4 *367:21 *1206:A1 23 
*END

*D_NET *368 0.00395687
*CONN
*I *1193:A1 I *D sky130_fd_sc_hd__a22o_1
*I *1600:A I *D sky130_fd_sc_hd__dlygate4sd3_1
*I *1511:Q O *D sky130_fd_sc_hd__dfxtp_1
*CAP
1 *1193:A1 0
2 *1600:A 8.2189e-05
3 *1511:Q 0.000291435
4 *368:25 0.000667492
5 *368:10 0.00104112
6 *368:10 *435:58 0.000165003
7 *368:25 *435:58 0.000773838
8 *1193:B1 *368:25 2.02872e-05
9 *1193:B2 *368:25 0.000182832
10 *95:8 *368:25 0.000165384
11 *168:38 *368:25 0.000133384
12 *258:14 *368:25 1.5769e-05
13 *268:75 *368:25 0.000128689
14 *331:38 *368:10 0
15 *331:38 *368:25 0
16 *331:46 *368:10 0.000142634
17 *331:48 *368:10 0.000146822
*RES
1 *1511:Q *368:10 43.2614 
2 *368:10 *1600:A 39.0979 
3 *368:10 *368:25 30.6186 
4 *368:25 *1193:A1 23 
*END

*D_NET *369 0.00214158
*CONN
*I *1613:A I *D sky130_fd_sc_hd__dlygate4sd3_1
*I *1262:A I *D sky130_fd_sc_hd__inv_2
*I *1512:Q O *D sky130_fd_sc_hd__dfxtp_1
*CAP
1 *1613:A 0.000251149
2 *1262:A 0
3 *1512:Q 0
4 *369:12 0.000610145
5 *369:4 0.000861294
6 *1613:A *407:10 2.93747e-05
7 *369:12 *401:36 0.000141879
8 *369:12 *407:10 3.15599e-05
9 *1512:D *369:12 0.000127664
10 *231:8 *369:12 8.85189e-05
*RES
1 *1512:Q *369:4 23 
2 *369:4 *369:12 39.1971 
3 *369:12 *1262:A 23 
4 *369:4 *1613:A 27.3293 
*END

*D_NET *370 0.00143313
*CONN
*I *1605:A I *D sky130_fd_sc_hd__dlygate4sd3_1
*I *1253:A I *D sky130_fd_sc_hd__inv_2
*I *1513:Q O *D sky130_fd_sc_hd__dfxtp_1
*CAP
1 *1605:A 7.00568e-05
2 *1253:A 0.000321239
3 *1513:Q 0.000159898
4 *370:10 0.000551194
5 *1253:A *373:8 2.43233e-05
6 *1253:A *422:14 9.48318e-05
7 *1605:A *422:14 0.00014411
8 *370:10 *422:30 1.37232e-05
9 *223:10 *1253:A 1.31512e-05
10 *242:14 *1253:A 0
11 *242:14 *1605:A 0
12 *299:59 *1253:A 0
13 *301:10 *370:10 1.73399e-05
14 *334:32 *1253:A 2.32672e-05
*RES
1 *1513:Q *370:10 41.1279 
2 *370:10 *1253:A 42.93 
3 *370:10 *1605:A 39.9057 
*END

*D_NET *371 0.000863739
*CONN
*I *1608:A I *D sky130_fd_sc_hd__dlygate4sd3_1
*I *1244:A I *D sky130_fd_sc_hd__inv_2
*I *1514:Q O *D sky130_fd_sc_hd__dfxtp_1
*CAP
1 *1608:A 0
2 *1244:A 6.00746e-05
3 *1514:Q 3.56214e-05
4 *371:23 0.000182526
5 *371:6 0.000278222
6 *1265:A2 *371:23 9.84851e-05
7 *1520:CLK *1244:A 2.02517e-05
8 *176:77 *371:23 4.66036e-05
9 *319:84 *371:23 0
10 *336:133 *371:6 0.000141954
*RES
1 *1514:Q *371:6 24.5743 
2 *371:6 *1244:A 24.4707 
3 *371:6 *371:23 33.3557 
4 *371:23 *1608:A 23 
*END

*D_NET *372 0.000489206
*CONN
*I *1603:A I *D sky130_fd_sc_hd__dlygate4sd3_1
*I *1235:A I *D sky130_fd_sc_hd__inv_2
*I *1515:Q O *D sky130_fd_sc_hd__dfxtp_1
*CAP
1 *1603:A 5.71946e-05
2 *1235:A 2.18824e-05
3 *1515:Q 6.50958e-05
4 *372:12 0.000114071
5 *372:8 0.00010009
6 *372:8 *505:10 0
7 *1409:A *372:12 0
8 *207:12 *1603:A 0.000102971
9 *262:8 *372:8 2.79004e-05
*RES
1 *1515:Q *372:8 39.2014 
2 *372:8 *372:12 15.8493 
3 *372:12 *1235:A 23.4971 
4 *372:12 *1603:A 24.5743 
*END

*D_NET *373 0.00106043
*CONN
*I *1226:A I *D sky130_fd_sc_hd__inv_2
*I *1598:A I *D sky130_fd_sc_hd__dlygate4sd3_1
*I *1516:Q O *D sky130_fd_sc_hd__dfxtp_1
*CAP
1 *1226:A 3.34248e-05
2 *1598:A 0.000179969
3 *1516:Q 0.00013083
4 *373:8 0.000344223
5 *1253:A *373:8 2.43233e-05
6 *1410:S *1598:A 9.84794e-05
7 *223:10 *373:8 9.84794e-05
8 *242:14 *1226:A 0
9 *242:14 *1598:A 0
10 *299:46 *1598:A 5.3304e-05
11 *299:59 *1226:A 2.96154e-05
12 *299:59 *1598:A 6.26298e-05
13 *334:32 *373:8 5.14746e-06
*RES
1 *1516:Q *373:8 40.0507 
2 *373:8 *1598:A 41.48 
3 *373:8 *1226:A 38.8493 
*END

*D_NET *374 0.0011854
*CONN
*I *1604:A I *D sky130_fd_sc_hd__dlygate4sd3_1
*I *1217:A I *D sky130_fd_sc_hd__inv_2
*I *1517:Q O *D sky130_fd_sc_hd__dfxtp_1
*CAP
1 *1604:A 0.000323929
2 *1217:A 0
3 *1517:Q 0
4 *374:12 0.000192611
5 *374:4 0.00051654
6 *1604:A *506:14 1.32939e-05
7 *374:12 *506:14 2.65663e-05
8 *191:8 *374:12 0.000112455
*RES
1 *1517:Q *374:4 23 
2 *374:4 *374:12 33.3557 
3 *374:12 *1217:A 23 
4 *374:4 *1604:A 27.3293 
*END

*D_NET *375 0.00174056
*CONN
*I *1208:A I *D sky130_fd_sc_hd__inv_2
*I *1609:A I *D sky130_fd_sc_hd__dlygate4sd3_1
*I *1518:Q O *D sky130_fd_sc_hd__dfxtp_1
*CAP
1 *1208:A 0.000405912
2 *1609:A 0.000158332
3 *1518:Q 0
4 *375:6 0.000564244
5 *1208:A *1270:A2 5.82853e-05
6 *1208:A *1270:B1 6.72485e-05
7 *1208:A *413:8 9.66668e-05
8 *1208:A *428:10 6.67555e-05
9 *1208:A *431:16 2.05503e-05
10 *1609:A *428:10 0.000111041
11 *64:10 *1208:A 3.66555e-05
12 *306:10 *1208:A 4.60803e-05
13 *306:10 *1609:A 0.000108786
*RES
1 *1518:Q *375:6 38 
2 *375:6 *1609:A 42.4329 
3 *375:6 *1208:A 46.265 
*END

*D_NET *376 0.00171479
*CONN
*I *1197:A I *D sky130_fd_sc_hd__inv_2
*I *1611:A I *D sky130_fd_sc_hd__dlygate4sd3_1
*I *1519:Q O *D sky130_fd_sc_hd__dfxtp_1
*CAP
1 *1197:A 0.000532969
2 *1611:A 0.000136249
3 *1519:Q 0
4 *376:6 0.000669218
5 *1197:A *413:12 6.43005e-05
6 *1197:A *428:10 4.58924e-05
7 *1611:A *413:12 0.000146634
8 *1611:A *428:10 9.0236e-05
9 underrun *1611:A 2.31209e-05
10 *1198:A1 *1197:A 6.17437e-06
*RES
1 *1519:Q *376:6 38 
2 *376:6 *1611:A 42.2879 
3 *376:6 *1197:A 46.7207 
*END

*D_NET *377 0.00114699
*CONN
*I *1576:A I *D sky130_fd_sc_hd__dlygate4sd3_1
*I *1265:A1 I *D sky130_fd_sc_hd__a211o_1
*I *1520:Q O *D sky130_fd_sc_hd__dfxtp_1
*CAP
1 *1576:A 0.000125617
2 *1265:A1 0.000169866
3 *1520:Q 0.000158105
4 *377:10 0.000295483
5 *377:8 0.000158105
6 *377:8 *479:8 5.45887e-05
7 *1265:A2 *1265:A1 3.08966e-05
8 *1265:B1 *1265:A1 1.14154e-05
9 *1265:C1 *1265:A1 2.29519e-05
10 *1512:D *1576:A 0
11 *231:8 *377:8 0
12 *232:16 *377:8 0
13 *234:10 *1265:A1 5.47808e-05
14 *234:10 *1576:A 6.51763e-05
15 *234:10 *377:8 0
16 *300:8 *377:8 0
17 *310:10 *377:8 0
*RES
1 *1520:Q *377:8 40.9621 
2 *377:8 *377:10 15 
3 *377:10 *1265:A1 26.5007 
4 *377:10 *1576:A 25.5479 
*END

*D_NET *378 0.00223687
*CONN
*I *1256:A1 I *D sky130_fd_sc_hd__a211o_1
*I *1559:A I *D sky130_fd_sc_hd__dlygate4sd3_1
*I *1521:Q O *D sky130_fd_sc_hd__dfxtp_1
*CAP
1 *1256:A1 0.000164547
2 *1559:A 0
3 *1521:Q 0.000374508
4 *378:14 0.000249594
5 *378:10 0.000459555
6 *378:10 *461:10 0.000159792
7 *1227:A1 *378:10 0.00022542
8 *1229:A2 *1256:A1 7.00185e-05
9 *1229:A2 *378:14 0.000233367
10 *1254:A1 *378:10 4.51431e-05
11 *1256:A2 *1256:A1 1.14154e-05
12 *172:110 *1256:A1 2.30292e-05
13 *226:14 *378:10 0
14 *299:46 *378:10 0.000186733
15 *309:105 *378:10 3.3746e-05
*RES
1 *1521:Q *378:10 44.7736 
2 *378:10 *378:14 17.5271 
3 *378:14 *1559:A 23 
4 *378:14 *1256:A1 26.8736 
*END

*D_NET *379 0.00288986
*CONN
*I *1582:A I *D sky130_fd_sc_hd__dlygate4sd3_1
*I *1247:A1 I *D sky130_fd_sc_hd__a211o_1
*I *1522:Q O *D sky130_fd_sc_hd__dfxtp_1
*CAP
1 *1582:A 0.000753434
2 *1247:A1 0
3 *1522:Q 0.00013696
4 *379:12 0.000243211
5 *379:6 0.00113361
6 *379:12 *433:18 0.000133553
7 *379:12 *433:20 9.34813e-05
8 *379:12 *434:12 0.000217765
9 *1265:A2 *1582:A 5.51963e-05
10 *1265:A2 *379:6 1.10105e-05
11 *1522:CLK *1582:A 9.17507e-05
12 *1522:D *1582:A 8.15899e-06
13 *172:98 *379:12 9.28078e-06
14 *172:110 *379:6 2.45549e-06
*RES
1 *1522:Q *379:6 24.5743 
2 *379:6 *379:12 36.4836 
3 *379:12 *1247:A1 23 
4 *379:6 *1582:A 33.0464 
*END

*D_NET *380 0.00112226
*CONN
*I *1585:A I *D sky130_fd_sc_hd__dlygate4sd3_1
*I *1238:A1 I *D sky130_fd_sc_hd__a211o_1
*I *1523:Q O *D sky130_fd_sc_hd__dfxtp_1
*CAP
1 *1585:A 0.000101493
2 *1238:A1 0
3 *1523:Q 0.000199256
4 *380:12 6.71696e-05
5 *380:6 0.000367918
6 *172:26 *380:12 0.000194327
7 *208:12 *380:12 0.000192096
*RES
1 *1523:Q *380:6 25.5271 
2 *380:6 *380:12 32.61 
3 *380:12 *1238:A1 23 
4 *380:6 *1585:A 24.595 
*END

*D_NET *381 0.00162814
*CONN
*I *1601:A I *D sky130_fd_sc_hd__dlygate4sd3_1
*I *1229:A1 I *D sky130_fd_sc_hd__a211o_1
*I *1524:Q O *D sky130_fd_sc_hd__dfxtp_1
*CAP
1 *1601:A 6.72509e-05
2 *1229:A1 0.0001179
3 *1524:Q 0.000147376
4 *381:12 0.000185151
5 *381:10 0.000147376
6 *381:10 *422:30 9.84851e-05
7 *381:10 *445:8 4.08641e-05
8 *381:10 *455:78 1.4471e-05
9 *1229:A2 *1229:A1 0.000303697
10 *1229:A2 *1601:A 0.00017293
11 *1229:B1 *1229:A1 4.80349e-05
12 *1229:B1 *1601:A 4.96303e-05
13 *1229:C1 *1229:A1 9.84851e-05
14 *165:179 *381:10 0.000136486
*RES
1 *1524:Q *381:10 41.0036 
2 *381:10 *381:12 15 
3 *381:12 *1229:A1 26.5007 
4 *381:12 *1601:A 25.0507 
*END

*D_NET *382 0.00185052
*CONN
*I *1562:A I *D sky130_fd_sc_hd__dlygate4sd3_1
*I *1220:A1 I *D sky130_fd_sc_hd__a211o_1
*I *1525:Q O *D sky130_fd_sc_hd__dfxtp_1
*CAP
1 *1562:A 0.000172683
2 *1220:A1 0.000143791
3 *1525:Q 5.62067e-05
4 *382:10 0.000316474
5 *382:8 5.62067e-05
6 *1220:A1 *425:28 0.000259337
7 *1562:A *425:28 0.000387289
8 *160:150 *382:8 0.000138718
9 *166:106 *1220:A1 2.43944e-05
10 *166:106 *1562:A 1.59094e-05
11 *166:106 *382:8 0.000138718
12 *172:53 *1220:A1 3.91386e-05
13 *172:66 *1220:A1 0.000101652
*RES
1 *1525:Q *382:8 39.9057 
2 *382:8 *382:10 15 
3 *382:10 *1220:A1 26.5007 
4 *382:10 *1562:A 27.4329 
*END

*D_NET *383 0.00131686
*CONN
*I *1211:A1 I *D sky130_fd_sc_hd__a211o_1
*I *1579:A I *D sky130_fd_sc_hd__dlygate4sd3_1
*I *1526:Q O *D sky130_fd_sc_hd__dfxtp_1
*CAP
1 *1211:A1 0
2 *1579:A 0.000229016
3 *1526:Q 0
4 *383:23 0.000127938
5 *383:4 0.000356954
6 *383:23 *1432:A0 1.32405e-05
7 *383:23 *442:8 8.78864e-05
8 *165:135 *1579:A 4.82016e-05
9 *165:139 *383:23 4.62726e-05
10 *166:106 *383:23 0.00018928
11 *185:18 *383:23 2.91427e-05
12 *299:129 *1579:A 0.000188927
*RES
1 *1526:Q *383:4 23 
2 *383:4 *1579:A 27.4536 
3 *383:4 *383:23 33.5421 
4 *383:23 *1211:A1 23 
*END

*D_NET *384 0.00124215
*CONN
*I *1563:A I *D sky130_fd_sc_hd__dlygate4sd3_1
*I *1202:A1 I *D sky130_fd_sc_hd__a211o_1
*I *1527:Q O *D sky130_fd_sc_hd__dfxtp_1
*CAP
1 *1563:A 0.00012201
2 *1202:A1 0.000195969
3 *1527:Q 5.68754e-05
4 *384:10 0.000317979
5 *384:8 5.68754e-05
6 *384:8 *465:8 2.79004e-05
7 *1202:A2 *1202:A1 0.000228001
8 *166:78 *384:8 0.000114083
9 *174:10 *1202:A1 5.25017e-05
10 *174:10 *1563:A 6.99589e-05
11 *309:62 *384:8 0
*RES
1 *1527:Q *384:8 39.5536 
2 *384:8 *384:10 15 
3 *384:10 *1202:A1 26.9771 
4 *384:10 *1563:A 25.0714 
*END

*D_NET *385 0.00227405
*CONN
*I *1575:A I *D sky130_fd_sc_hd__dlygate4sd3_1
*I *1264:B2 I *D sky130_fd_sc_hd__a22o_1
*I *1528:Q O *D sky130_fd_sc_hd__dfxtp_1
*CAP
1 *1575:A 0.000300772
2 *1264:B2 0
3 *1528:Q 0
4 *385:12 0.000282315
5 *385:4 0.000583087
6 *1575:A *1438:A0 0.000230723
7 *1264:A2 *385:12 5.82853e-05
8 *1438:S *1575:A 0.000363448
9 *97:8 *1575:A 0.000220391
10 *319:84 *1575:A 6.60665e-05
11 *319:84 *385:12 0.000136338
12 *353:6 *385:12 3.26241e-05
*RES
1 *1528:Q *385:4 23 
2 *385:4 *385:12 35.8621 
3 *385:12 *1264:B2 23 
4 *385:4 *1575:A 32.0936 
*END

*D_NET *386 0.0030405
*CONN
*I *1255:B2 I *D sky130_fd_sc_hd__a22o_1
*I *1555:A I *D sky130_fd_sc_hd__dlygate4sd3_1
*I *1529:Q O *D sky130_fd_sc_hd__dfxtp_1
*CAP
1 *1255:B2 0
2 *1555:A 0
3 *1529:Q 0.000117604
4 *386:25 0.000545997
5 *386:12 0.000616076
6 *386:8 0.000187683
7 *386:8 *387:27 2.79004e-05
8 *386:8 *458:10 0
9 *386:12 *387:27 5.70419e-05
10 *386:12 *425:67 0.000228909
11 *386:25 *387:27 0.000173278
12 *386:25 *425:67 0.000576699
13 *386:25 *433:14 0
14 *386:25 *434:12 0.000104802
15 *1443:A *386:25 5.50106e-05
16 *99:8 *386:25 7.10527e-05
17 *131:10 *386:25 5.93671e-05
18 *322:12 *386:25 0
19 *336:116 *386:25 0.000219079
*RES
1 *1529:Q *386:8 40.2579 
2 *386:8 *386:12 17.5271 
3 *386:12 *1555:A 23 
4 *386:12 *386:25 44.935 
5 *386:25 *1255:B2 23 
*END

*D_NET *387 0.00207923
*CONN
*I *1586:A I *D sky130_fd_sc_hd__dlygate4sd3_1
*I *1246:B2 I *D sky130_fd_sc_hd__a22o_1
*I *1530:Q O *D sky130_fd_sc_hd__dfxtp_1
*CAP
1 *1586:A 0
2 *1246:B2 0.000556541
3 *1530:Q 0
4 *387:27 0.000310213
5 *387:4 0.000866754
6 *387:27 *489:8 2.79004e-05
7 *1530:D *1246:B2 2.13216e-05
8 *176:87 *1246:B2 5.90675e-06
9 *336:116 *1246:B2 3.23684e-05
10 *386:8 *387:27 2.79004e-05
11 *386:12 *387:27 5.70419e-05
12 *386:25 *387:27 0.000173278
*RES
1 *1530:Q *387:4 23 
2 *387:4 *1246:B2 32.2386 
3 *387:4 *387:27 36.6286 
4 *387:27 *1586:A 23 
*END

*D_NET *388 0.00104442
*CONN
*I *1237:B2 I *D sky130_fd_sc_hd__a22o_1
*I *1619:A I *D sky130_fd_sc_hd__dlygate4sd3_1
*I *1531:Q O *D sky130_fd_sc_hd__dfxtp_1
*CAP
1 *1237:B2 3.83957e-05
2 *1619:A 0
3 *1531:Q 0.000160826
4 *388:8 0.000199222
5 *175:14 *1237:B2 9.41704e-05
6 *175:14 *388:8 0.000324909
7 *176:24 *1237:B2 8.17328e-05
8 *176:24 *388:8 0.000145163
*RES
1 *1531:Q *388:8 27.3293 
2 *388:8 *1619:A 23 
3 *388:8 *1237:B2 24.0979 
*END

*D_NET *389 0.00203424
*CONN
*I *1561:A I *D sky130_fd_sc_hd__dlygate4sd3_1
*I *1228:B2 I *D sky130_fd_sc_hd__a22o_1
*I *1532:Q O *D sky130_fd_sc_hd__dfxtp_1
*CAP
1 *1561:A 5.09723e-05
2 *1228:B2 0.000164851
3 *1532:Q 0.000404246
4 *389:8 0.000620069
5 *1228:B2 *1446:A1 2.95423e-05
6 *1228:B2 *425:55 6.42506e-05
7 *1228:B2 *437:122 0.00021738
8 *1561:A *425:55 6.50853e-05
9 *1561:A *437:122 0.000141675
10 *1228:B1 *1228:B2 1.92324e-05
11 *319:120 *1228:B2 8.78864e-05
12 *334:95 *389:8 2.10502e-05
13 *334:104 *389:8 0.000147995
*RES
1 *1532:Q *389:8 43.3857 
2 *389:8 *1228:B2 42.4329 
3 *389:8 *1561:A 39.9057 
*END

*D_NET *390 0.00161871
*CONN
*I *1219:B2 I *D sky130_fd_sc_hd__a22o_1
*I *1553:A I *D sky130_fd_sc_hd__dlygate4sd3_1
*I *1533:Q O *D sky130_fd_sc_hd__dfxtp_1
*CAP
1 *1219:B2 0.000167354
2 *1553:A 5.51252e-05
3 *1533:Q 0.000178042
4 *390:12 0.000222479
5 *390:10 0.000178042
6 *1553:A *474:10 3.22051e-05
7 *1533:CLK *390:10 5.79559e-05
8 *160:93 *1219:B2 0.000166799
9 *160:93 *1553:A 0.0001148
10 *160:97 *1219:B2 2.9938e-05
11 *268:86 *390:10 0.000164282
12 *332:46 *390:10 5.73288e-05
13 *332:74 *1219:B2 0.000139357
14 *350:14 *1219:B2 5.50049e-05
*RES
1 *1533:Q *390:10 41.3557 
2 *390:10 *390:12 15 
3 *390:12 *1553:A 24.5743 
4 *390:12 *1219:B2 26.9771 
*END

*D_NET *391 0.00309338
*CONN
*I *1548:A I *D sky130_fd_sc_hd__dlygate4sd3_1
*I *1210:B2 I *D sky130_fd_sc_hd__a22o_1
*I *1534:Q O *D sky130_fd_sc_hd__dfxtp_1
*CAP
1 *1548:A 0.000245699
2 *1210:B2 0.000214063
3 *1534:Q 0.000333643
4 *391:12 0.000459762
5 *391:10 0.000333643
6 *1548:A *1450:A0 0.000113573
7 *1210:A2 *1210:B2 5.56356e-05
8 *1526:CLK *1548:A 9.29049e-05
9 *175:33 *391:10 2.93469e-05
10 *176:34 *1210:B2 5.68958e-05
11 *176:45 *1210:B2 1.10658e-05
12 *176:45 *1548:A 6.58415e-06
13 *185:6 *1210:B2 4.03352e-05
14 *185:6 *1548:A 0.000568865
15 *326:10 *1210:B2 9.65021e-05
16 *359:16 *391:10 0.000179473
17 *359:24 *1210:B2 0.000114656
18 *359:24 *1548:A 1.21972e-05
19 *359:24 *391:10 0.000128534
*RES
1 *1534:Q *391:10 42.4329 
2 *391:10 *391:12 15 
3 *391:12 *1210:B2 27.93 
4 *391:12 *1548:A 30.3329 
*END

*D_NET *392 0.00158893
*CONN
*I *1201:B2 I *D sky130_fd_sc_hd__a22o_1
*I *1558:A I *D sky130_fd_sc_hd__dlygate4sd3_1
*I *1535:Q O *D sky130_fd_sc_hd__dfxtp_1
*CAP
1 *1201:B2 0.000102957
2 *1558:A 0
3 *1535:Q 0.000435194
4 *392:8 0.000538151
5 *392:8 *488:116 8.06804e-06
6 *1201:B1 *1201:B2 1.37232e-05
7 *1201:B1 *392:8 0
8 *319:27 *392:8 0.000185368
9 *319:38 *392:8 0.000273267
10 *327:8 *392:8 3.22051e-05
*RES
1 *1535:Q *392:8 31.265 
2 *392:8 *1558:A 23 
3 *392:8 *1201:B2 25.0714 
*END

*D_NET *393 0.00251875
*CONN
*I *1261:A1 I *D sky130_fd_sc_hd__a21o_1
*I *1569:A I *D sky130_fd_sc_hd__dlygate4sd3_1
*I *1454:Q O *D sky130_fd_sc_hd__dfxtp_1
*CAP
1 *1261:A1 0.000177472
2 *1569:A 0
3 *1454:Q 0.000571714
4 *393:14 0.000214595
5 *393:10 0.000608837
6 *393:10 *401:56 7.42268e-06
7 *393:10 *401:76 5.85822e-06
8 *1261:A2 *1261:A1 8.06118e-05
9 *1261:B1 *1261:A1 0.000305149
10 *1261:B1 *393:10 8.62876e-05
11 *1480:CLK *1261:A1 0.000252298
12 *1480:CLK *393:14 1.18862e-05
13 *160:150 *393:10 8.62876e-05
14 *335:110 *393:10 0.000110332
*RES
1 *1454:Q *393:10 45.0636 
2 *393:10 *393:14 15.8493 
3 *393:14 *1569:A 23 
4 *393:14 *1261:A1 28.075 
*END

*D_NET *394 0.00183382
*CONN
*I *1588:A I *D sky130_fd_sc_hd__dlygate4sd3_1
*I *1252:A1 I *D sky130_fd_sc_hd__a21o_1
*I *1455:Q O *D sky130_fd_sc_hd__dfxtp_1
*CAP
1 *1588:A 0.000265582
2 *1252:A1 0
3 *1455:Q 0
4 *394:12 0.000530865
5 *394:4 0.000796447
6 *142:128 *394:12 0
7 *158:91 *394:12 0.000165593
8 *158:102 *394:12 1.14452e-05
9 *288:90 *394:12 6.38845e-05
*RES
1 *1455:Q *394:4 23 
2 *394:4 *394:12 37.6436 
3 *394:12 *1252:A1 23 
4 *394:4 *1588:A 27.3293 
*END

*D_NET *395 0.00246046
*CONN
*I *1551:A I *D sky130_fd_sc_hd__dlygate4sd3_1
*I *1243:A1 I *D sky130_fd_sc_hd__a21o_1
*I *1456:Q O *D sky130_fd_sc_hd__dfxtp_1
*CAP
1 *1551:A 0
2 *1243:A1 0
3 *1456:Q 0
4 *395:25 0.000209112
5 *395:12 0.000455655
6 *395:4 0.000664767
7 *395:12 *434:12 0.000283959
8 *395:25 *1294:A0 5.56356e-05
9 *395:25 *438:92 0.000148786
10 *1456:D *395:12 3.06803e-05
11 *245:102 *395:25 0.000322733
12 *328:135 *395:12 0.000289137
*RES
1 *1456:Q *395:4 23 
2 *395:4 *395:12 37.975 
3 *395:12 *1243:A1 23 
4 *395:4 *395:25 35.3857 
5 *395:25 *1551:A 23 
*END

*D_NET *396 0.000954668
*CONN
*I *1234:A1 I *D sky130_fd_sc_hd__a21o_1
*I *1620:A I *D sky130_fd_sc_hd__dlygate4sd3_1
*I *1457:Q O *D sky130_fd_sc_hd__dfxtp_1
*CAP
1 *1234:A1 5.23378e-05
2 *1620:A 0
3 *1457:Q 8.05104e-05
4 *396:8 0.000132848
5 *1234:B1 *1234:A1 2.73207e-05
6 *158:200 *1234:A1 0.000100803
7 *158:200 *396:8 0.000170163
8 *219:24 *1234:A1 7.13271e-05
9 *219:24 *396:8 0.000319358
*RES
1 *1457:Q *396:8 26.9771 
2 *396:8 *1620:A 23 
3 *396:8 *1234:A1 25.0714 
*END

*D_NET *397 0.000786898
*CONN
*I *1552:A I *D sky130_fd_sc_hd__dlygate4sd3_1
*I *1225:A1 I *D sky130_fd_sc_hd__a21o_1
*I *1458:Q O *D sky130_fd_sc_hd__dfxtp_1
*CAP
1 *1552:A 6.8882e-05
2 *1225:A1 0
3 *1458:Q 0
4 *397:12 0.000261129
5 *397:4 0.000330011
6 *397:12 *438:42 4.11274e-05
7 *167:38 *397:12 8.57485e-05
*RES
1 *1458:Q *397:4 23 
2 *397:4 *397:12 33.7286 
3 *397:12 *1225:A1 23 
4 *397:4 *1552:A 24.4707 
*END

*D_NET *398 0.00137304
*CONN
*I *1216:A1 I *D sky130_fd_sc_hd__a21o_1
*I *1570:A I *D sky130_fd_sc_hd__dlygate4sd3_1
*I *1459:Q O *D sky130_fd_sc_hd__dfxtp_1
*CAP
1 *1216:A1 0.000166553
2 *1570:A 0
3 *1459:Q 0
4 *398:12 0.000378421
5 *398:4 0.000544973
6 *1216:B1 *398:12 2.80201e-05
7 *1221:A1 *1216:A1 0.000229804
8 *228:14 *398:12 2.52675e-05
9 *299:109 *398:12 0
*RES
1 *1459:Q *398:4 23 
2 *398:4 *398:12 36.2971 
3 *398:12 *1570:A 23 
4 *398:4 *1216:A1 25.5271 
*END

*D_NET *399 0.00368662
*CONN
*I *1589:A I *D sky130_fd_sc_hd__dlygate4sd3_1
*I *1207:A1 I *D sky130_fd_sc_hd__a21o_1
*I *1460:Q O *D sky130_fd_sc_hd__dfxtp_1
*CAP
1 *1589:A 0
2 *1207:A1 0
3 *1460:Q 0
4 *399:29 0.000886825
5 *399:16 0.000404563
6 *399:4 0.00129139
7 *399:29 *477:12 6.68378e-05
8 *1302:S *399:16 0.000397508
9 *163:222 *399:29 3.13898e-06
10 *252:10 *399:16 0.000454145
11 *331:114 *399:16 8.47624e-05
12 *331:114 *399:29 2.56863e-05
13 *331:129 *399:29 7.17698e-05
*RES
1 *1460:Q *399:4 23 
2 *399:4 *399:16 39.8393 
3 *399:16 *1207:A1 23 
4 *399:4 *399:29 41.5793 
5 *399:29 *1589:A 23 
*END

*D_NET *400 0.00257064
*CONN
*I *1194:A1 I *D sky130_fd_sc_hd__a21o_1
*I *1591:A I *D sky130_fd_sc_hd__dlygate4sd3_1
*I *1461:Q O *D sky130_fd_sc_hd__dfxtp_1
*CAP
1 *1194:A1 0.000474177
2 *1591:A 0.000119383
3 *1461:Q 0.000223054
4 *400:10 0.000816613
5 *1194:A1 *1361:A1 2.24608e-05
6 *1194:A1 *488:61 1.32832e-05
7 *1194:A1 *488:82 0.000193482
8 *1591:A *1304:A0 2.95526e-05
9 *1591:A *488:82 1.59909e-05
10 *400:10 *413:22 0.000102803
11 *400:10 *488:82 1.7403e-05
12 *1503:CLK *1194:A1 0
13 *158:68 *1194:A1 5.56279e-05
14 *167:138 *1194:A1 6.86315e-06
15 *169:10 *1194:A1 0.000163352
16 *245:151 *1591:A 0.000316594
17 *276:8 *1194:A1 0
18 *328:48 *1194:A1 0
*RES
1 *1461:Q *400:10 41.3557 
2 *400:10 *1591:A 41.48 
3 *400:10 *1194:A1 47.2179 
*END

*D_NET *401 0.0154754
*CONN
*I *1402:A1 I *D sky130_fd_sc_hd__mux2_1
*I *1420:A1 I *D sky130_fd_sc_hd__mux2_1
*I *1329:A1 I *D sky130_fd_sc_hd__mux2_1
*I *1290:A1 I *D sky130_fd_sc_hd__mux2_1
*I *1383:A0 I *D sky130_fd_sc_hd__mux2_1
*I *1347:A1 I *D sky130_fd_sc_hd__mux2_1
*I *1438:A1 I *D sky130_fd_sc_hd__mux2_1
*I *1365:A1 I *D sky130_fd_sc_hd__mux2_1
*I *1621:X O *D sky130_fd_sc_hd__clkbuf_2
*CAP
1 *1402:A1 0
2 *1420:A1 0
3 *1329:A1 0.000734262
4 *1290:A1 0
5 *1383:A0 0.000391572
6 *1347:A1 0
7 *1438:A1 0
8 *1365:A1 0
9 *1621:X 0.000498505
10 *401:82 8.02045e-05
11 *401:76 0.00106435
12 *401:56 0.000698301
13 *401:54 0.000992506
14 *401:44 0.000996795
15 *401:36 0.00136973
16 *401:27 0.000294451
17 *401:16 0.000262884
18 *401:8 0.00124521
19 *401:6 0.00199521
20 *1329:A1 *1329:A0 5.72975e-05
21 *1383:A0 *1347:A0 5.3304e-05
22 *1383:A0 *1383:A1 9.66668e-05
23 *401:6 *425:71 0.000219846
24 *401:8 *425:71 0.000190653
25 *401:8 *433:10 0.000489755
26 *401:16 *419:27 2.54046e-05
27 *401:16 *433:10 0.000314157
28 *401:27 *419:27 0
29 *401:44 *1420:A0 9.84851e-05
30 *401:56 *1347:A0 6.86773e-05
31 *1245:B1 *401:44 0.000183733
32 *1329:S *1329:A1 8.40964e-05
33 *1347:S *1383:A0 5.61255e-06
34 *1348:A *1383:A0 0.000112988
35 *1402:S *401:36 1.12863e-05
36 *1402:S *401:44 0.000150307
37 *1454:D *1329:A1 0.000114212
38 *1567:A *401:54 0.000132665
39 *6:9 *401:6 5.70419e-05
40 *8:9 *401:8 4.95081e-05
41 *160:150 *401:44 0
42 *165:90 *401:54 0
43 *165:90 *401:82 0.000159276
44 *166:135 *401:54 0.000504178
45 *167:84 *1383:A0 4.75206e-05
46 *175:74 *401:54 0
47 *176:87 *401:27 0.000213736
48 *231:8 *401:36 6.42079e-05
49 *234:10 *401:36 0
50 *234:10 *401:44 0
51 *258:110 *1329:A1 0.000356126
52 *309:37 *401:54 1.88129e-05
53 *309:54 *401:44 1.21972e-05
54 *309:54 *401:82 0.000159276
55 *320:10 *401:27 0
56 *335:110 *1329:A1 9.63041e-05
57 *335:110 *401:76 9.2057e-05
58 *336:152 *401:36 0.000110922
59 *345:20 *401:54 0.000345949
60 *353:21 *401:27 0
61 *369:12 *401:36 0.000141879
62 *393:10 *401:56 7.42268e-06
63 *393:10 *401:76 5.85822e-06
*RES
1 *1621:X *401:6 30.7679 
2 *401:6 *401:8 11.5793 
3 *401:8 *401:16 34.6814 
4 *401:16 *1365:A1 23 
5 *401:8 *401:27 35.7793 
6 *401:27 *1438:A1 23 
7 *401:6 *401:36 30.9914 
8 *401:36 *401:44 25.0464 
9 *401:44 *401:54 40.7714 
10 *401:54 *401:56 3.95643 
11 *401:56 *1347:A1 23 
12 *401:56 *1383:A0 29.525 
13 *401:54 *401:76 3.00357 
14 *401:76 *401:82 32.2579 
15 *401:82 *1290:A1 23 
16 *401:76 *1329:A1 33.15 
17 *401:44 *1420:A1 23 
18 *401:36 *1402:A1 38 
*END

*D_NET *402 0.0018778
*CONN
*I *1306:A I *D sky130_fd_sc_hd__inv_2
*I *1288:A I *D sky130_fd_sc_hd__buf_4
*I *1622:X O *D sky130_fd_sc_hd__buf_1
*CAP
1 *1306:A 0
2 *1288:A 0
3 *1622:X 0.000259875
4 *402:29 0.000374781
5 *402:12 0.000108246
6 *402:6 0.000742902
7 *402:6 *427:12 0.000100542
8 *402:12 *413:55 0
9 *402:29 *427:12 6.8295e-05
10 *1170:B *402:29 5.79559e-05
11 *1321:A *402:29 3.85196e-05
12 *51:10 *402:29 2.47321e-05
13 *149:31 *402:12 1.14452e-05
14 *244:130 *402:12 3.64337e-05
15 *288:28 *402:29 5.40752e-05
*RES
1 *1622:X *402:6 26.9564 
2 *402:6 *402:12 32.2579 
3 *402:12 *1288:A 23 
4 *402:6 *402:29 36.5043 
5 *402:29 *1306:A 23 
*END

*D_NET *403 0.00106643
*CONN
*I *1406:A0 I *D sky130_fd_sc_hd__mux2_1
*I *1608:X O *D sky130_fd_sc_hd__dlygate4sd3_1
*CAP
1 *1406:A0 0
2 *1608:X 0.000263595
3 *403:10 0.000263595
4 *403:10 *419:27 0.000162809
5 *1265:A2 *403:10 0.000136743
6 *302:10 *403:10 9.17287e-05
7 *319:84 *403:10 6.16771e-05
8 *336:70 *403:10 8.62876e-05
*RES
1 *1608:X *403:10 43.5929 
2 *403:10 *1406:A0 38 
*END

*D_NET *404 0.000446386
*CONN
*I *1414:A0 I *D sky130_fd_sc_hd__mux2_1
*I *1609:X O *D sky130_fd_sc_hd__dlygate4sd3_1
*CAP
1 *1414:A0 0.000110387
2 *1609:X 0.000110387
3 *1414:A0 *477:66 5.56279e-05
4 *299:150 *1414:A0 0.000137361
5 *306:10 *1414:A0 3.26241e-05
*RES
1 *1609:X *1414:A0 48.5271 
*END

*D_NET *405 0.00050749
*CONN
*I *1204:A0 I *D sky130_fd_sc_hd__mux2_1
*I *1610:X O *D sky130_fd_sc_hd__dlygate4sd3_1
*CAP
1 *1204:A0 5.09642e-05
2 *1610:X 5.09642e-05
3 *1204:A0 *413:22 7.06229e-05
4 *1204:S *1204:A0 5.70419e-05
5 *163:222 *1204:A0 0.000277896
*RES
1 *1610:X *1204:A0 49.0036 
*END

*D_NET *406 0.000539191
*CONN
*I *1416:A0 I *D sky130_fd_sc_hd__mux2_1
*I *1611:X O *D sky130_fd_sc_hd__dlygate4sd3_1
*CAP
1 *1416:A0 0.000204531
2 *1611:X 0.000204531
3 *1416:A0 *1416:A1 5.72975e-05
4 *299:150 *1416:A0 7.28308e-05
*RES
1 *1611:X *1416:A0 49.48 
*END

*D_NET *407 0.00148857
*CONN
*I *1402:A0 I *D sky130_fd_sc_hd__mux2_1
*I *1613:X O *D sky130_fd_sc_hd__dlygate4sd3_1
*CAP
1 *1402:A0 0.000340147
2 *1613:X 0.000287304
3 *407:10 0.00062745
4 *1464:CLK *1402:A0 9.40164e-05
5 *1464:D *1402:A0 7.87147e-05
6 *1613:A *407:10 2.93747e-05
7 *369:12 *407:10 3.15599e-05
*RES
1 *1613:X *407:10 43.0129 
2 *407:10 *1402:A0 43.8621 
*END

*D_NET *408 0.00123778
*CONN
*I *1213:A0 I *D sky130_fd_sc_hd__mux2_1
*I *1614:X O *D sky130_fd_sc_hd__dlygate4sd3_1
*CAP
1 *1213:A0 6.39468e-05
2 *1614:X 0.000210651
3 *408:10 0.000274598
4 *1213:A0 *492:6 0.000185616
5 *408:10 *413:12 0.000104695
6 *408:10 *413:22 5.82853e-05
7 *45:8 *408:10 0.000115526
8 *163:230 *1213:A0 0.000100061
9 *254:127 *408:10 0.000124406
*RES
1 *1614:X *408:10 43.6964 
2 *408:10 *1213:A0 40.0507 
*END

*D_NET *409 0.000955958
*CONN
*I *1222:A0 I *D sky130_fd_sc_hd__mux2_1
*I *1615:X O *D sky130_fd_sc_hd__dlygate4sd3_1
*CAP
1 *1222:A0 8.83925e-05
2 *1615:X 6.50485e-05
3 *409:8 0.000153441
4 *409:8 *1615:A 0.000164003
5 *163:45 *1222:A0 9.41704e-05
6 *254:46 *409:8 0.000164003
7 *333:20 *1222:A0 0.000226899
*RES
1 *1615:X *409:8 40.2579 
2 *409:8 *1222:A0 40.5271 
*END

*D_NET *410 0.000700541
*CONN
*I *1267:A0 I *D sky130_fd_sc_hd__mux2_1
*I *1616:X O *D sky130_fd_sc_hd__dlygate4sd3_1
*CAP
1 *1267:A0 0
2 *1616:X 0.000228948
3 *410:10 0.000228948
4 *235:10 *410:10 0.000136791
5 *254:105 *410:10 5.02335e-05
6 *254:113 *410:10 0
7 *337:25 *410:10 5.56193e-05
*RES
1 *1616:X *410:10 42.3086 
2 *410:10 *1267:A0 38 
*END

*D_NET *411 0.000281446
*CONN
*I *1231:A0 I *D sky130_fd_sc_hd__mux2_1
*I *1617:X O *D sky130_fd_sc_hd__dlygate4sd3_1
*CAP
1 *1231:A0 4.55235e-05
2 *1617:X 8.05071e-05
3 *411:8 0.000126031
4 *411:8 *420:10 0
5 *163:45 *1231:A0 2.93845e-05
*RES
1 *1617:X *411:8 39.2014 
2 *411:8 *1231:A0 38.6214 
*END

*D_NET *412 0.000606697
*CONN
*I *1240:A0 I *D sky130_fd_sc_hd__mux2_1
*I *1618:X O *D sky130_fd_sc_hd__dlygate4sd3_1
*CAP
1 *1240:A0 0.000160251
2 *1618:X 0.000160251
3 *1312:A *1240:A0 5.12302e-05
4 *163:70 *1240:A0 5.41288e-05
5 *211:16 *1240:A0 0.00010018
6 *254:82 *1240:A0 2.61526e-05
7 *254:105 *1240:A0 5.45025e-05
*RES
1 *1618:X *1240:A0 49.9564 
*END

*D_NET *413 0.0168202
*CONN
*I *1325:B I *D sky130_fd_sc_hd__and4b_1
*I *1169:A1 I *D sky130_fd_sc_hd__a21oi_1
*I *1166:B I *D sky130_fd_sc_hd__and3_1
*I *1399:B I *D sky130_fd_sc_hd__and4_1
*I *1272:A1 I *D sky130_fd_sc_hd__a21o_1
*I *1159:D1 I *D sky130_fd_sc_hd__o2111a_1
*I *1623:X O *D sky130_fd_sc_hd__clkbuf_2
*CAP
1 *1325:B 0
2 *1169:A1 1.94444e-05
3 *1166:B 0.000142753
4 *1399:B 0.000150603
5 *1272:A1 0
6 *1159:D1 0.00035094
7 *1623:X 6.44127e-05
8 *413:77 0.000352112
9 *413:55 0.000740003
10 *413:49 0.000890606
11 *413:36 0.000402693
12 *413:34 0.000295173
13 *413:32 0.000650593
14 *413:22 0.00254669
15 *413:12 0.00309542
16 *413:8 0.00121023
17 *1159:D1 *514:42 0.000539429
18 *1159:D1 *515:18 0.000231289
19 *1159:D1 *516:67 1.41129e-05
20 *1166:B *1166:A 2.07484e-05
21 *1166:B *514:16 2.69729e-05
22 *1399:B *516:67 7.42423e-05
23 *413:12 *428:10 0
24 *413:12 *477:12 0.000258728
25 *413:12 *499:63 7.41781e-05
26 *413:22 *424:25 5.41385e-05
27 *413:36 *516:67 5.58003e-05
28 *413:55 *1557:A 0.000130423
29 *413:55 *427:8 6.63801e-05
30 *413:55 *427:12 0.00014196
31 *413:55 *429:16 0
32 *413:55 *514:42 0.000163102
33 *413:55 *515:14 0
34 *413:77 *429:16 0.000100247
35 *413:77 *514:16 2.47128e-05
36 underrun *413:12 5.44006e-05
37 *1166:C *1166:B 2.45549e-06
38 *1197:A *413:12 6.43005e-05
39 *1204:A0 *413:22 7.06229e-05
40 *1204:S *413:22 0.000208259
41 *1205:A *413:22 8.97899e-05
42 *1208:A *413:8 9.66668e-05
43 *1214:A *413:22 0.000230051
44 *1316:A *413:22 0.000321251
45 *1461:D *413:22 1.64354e-05
46 *1611:A *413:12 0.000146634
47 *51:10 *413:55 3.21327e-05
48 *71:10 *413:22 5.8118e-05
49 *72:10 *413:22 1.05235e-05
50 *119:8 *413:12 8.78864e-05
51 *148:27 *1166:B 1.74129e-05
52 *148:27 *413:55 1.07299e-05
53 *148:34 *413:77 0.000182826
54 *148:42 *413:32 2.35426e-05
55 *149:31 *413:55 0
56 *151:12 *1166:B 0.000102389
57 *151:12 *413:55 0.000156143
58 *151:12 *413:77 2.1819e-05
59 *163:203 *413:22 0.000370881
60 *163:222 *413:22 6.75333e-05
61 *244:130 *1166:B 0
62 *244:130 *1169:A1 0
63 *245:132 *1159:D1 1.61385e-05
64 *245:132 *413:32 0.000595385
65 *245:132 *413:34 5.14826e-05
66 *245:132 *413:36 2.193e-05
67 *254:127 *413:12 0
68 *297:12 *1399:B 4.43801e-05
69 *299:150 *413:12 0
70 *306:10 *413:12 0.000324503
71 *343:8 *413:12 0.000169683
72 *400:10 *413:22 0.000102803
73 *402:12 *413:55 0
74 *408:10 *413:12 0.000104695
75 *408:10 *413:22 5.82853e-05
*RES
1 *1623:X *413:8 39.0979 
2 *413:8 *413:12 42.26 
3 *413:12 *413:22 38.57 
4 *413:22 *413:32 43.9821 
5 *413:32 *413:34 1.09786 
6 *413:34 *413:36 1.09786 
7 *413:36 *1159:D1 31.7621 
8 *413:36 *413:49 15 
9 *413:49 *413:55 30.1214 
10 *413:55 *1272:A1 23 
11 *413:49 *1399:B 41.3143 
12 *413:34 *413:77 35.4893 
13 *413:77 *1166:B 26.5214 
14 *413:77 *1169:A1 23.4971 
15 *413:32 *1325:B 23 
*END

*D_NET *414 0.000177613
*CONN
*I *1633:A I *D sky130_fd_sc_hd__clkbuf_4
*I *1287:X O *D sky130_fd_sc_hd__clkbuf_1
*CAP
1 *1633:A 0
2 *1287:X 7.17116e-05
3 *414:8 7.17116e-05
4 *414:8 *1599:A 3.41894e-05
*RES
1 *1287:X *414:8 39.5536 
2 *414:8 *1633:A 38 
*END

*D_NET *415 0.000450195
*CONN
*I *1634:A I *D sky130_fd_sc_hd__clkbuf_4
*I *1284:X O *D sky130_fd_sc_hd__clkbuf_1
*CAP
1 *1634:A 0
2 *1284:X 0.000213638
3 *415:10 0.000213638
4 *415:10 *422:14 2.29192e-05
*RES
1 *1284:X *415:10 41.1279 
2 *415:10 *1634:A 38 
*END

*D_NET *416 0.00194661
*CONN
*I *1635:A I *D sky130_fd_sc_hd__clkbuf_4
*I *1616:A I *D sky130_fd_sc_hd__dlygate4sd3_1
*I *1464:Q O *D sky130_fd_sc_hd__dfrtp_1
*CAP
1 *1635:A 0.000340529
2 *1616:A 0.000262368
3 *1464:Q 9.46582e-05
4 *416:10 0.000697555
5 *1616:A *431:16 0.00021341
6 *1635:A *431:16 0.000338086
*RES
1 *1464:Q *416:10 39.4707 
2 *416:10 *1616:A 43.4271 
3 *416:10 *1635:A 46.9486 
*END

*D_NET *417 0.000540088
*CONN
*I *1636:A I *D sky130_fd_sc_hd__buf_2
*I *1606:A I *D sky130_fd_sc_hd__dlygate4sd3_1
*I *1465:Q O *D sky130_fd_sc_hd__dfrtp_1
*CAP
1 *1636:A 0
2 *1606:A 0.000104591
3 *1465:Q 0.000101412
4 *417:8 0.000206003
5 *1606:A *431:16 6.88552e-05
6 *417:8 *431:16 3.48266e-05
7 dout[1] *417:8 2.43996e-05
*RES
1 *1465:Q *417:8 40.2579 
2 *417:8 *1606:A 40.61 
3 *417:8 *1636:A 38 
*END

*D_NET *418 0.00680122
*CONN
*I *1249:A0 I *D sky130_fd_sc_hd__mux2_1
*I *1637:A I *D sky130_fd_sc_hd__clkbuf_4
*I *1466:Q O *D sky130_fd_sc_hd__dfrtp_1
*CAP
1 *1249:A0 0
2 *1637:A 0.000196823
3 *1466:Q 0.000346667
4 *418:14 0.00202929
5 *418:12 0.00217913
6 *1637:A *444:8 0.000228903
7 *418:12 *430:29 0
8 *418:14 *1599:A 0
9 *418:14 *430:29 0
10 *418:14 *437:31 0
11 *418:14 *444:12 0
12 *1286:B *418:14 0
13 *1466:RESET_B *418:12 3.84966e-05
14 *75:10 *418:14 0.00010973
15 *80:10 *418:14 6.93449e-05
16 *92:8 *418:14 2.99194e-05
17 *163:24 *418:12 0.00014411
18 *238:35 *418:14 0
19 *254:8 *418:14 0.000139006
20 *254:29 *418:12 1.14452e-05
21 *254:29 *418:14 0.00109865
22 *254:46 *418:12 0.000179702
23 *330:24 *418:14 0
*RES
1 *1466:Q *418:12 43.7586 
2 *418:12 *418:14 41.3457 
3 *418:14 *1637:A 42.4329 
4 *418:12 *1249:A0 38 
*END

*D_NET *419 0.00578729
*CONN
*I *1638:A I *D sky130_fd_sc_hd__clkbuf_4
*I *1618:A I *D sky130_fd_sc_hd__dlygate4sd3_1
*I *1467:Q O *D sky130_fd_sc_hd__dfrtp_1
*CAP
1 *1638:A 0.000208262
2 *1618:A 0
3 *1467:Q 0
4 *419:27 0.00155093
5 *419:12 0.00012417
6 *419:4 0.00146684
7 *1638:A *433:10 0.000265565
8 *419:27 *1424:A0 0.000379642
9 *419:27 *1424:A1 9.67842e-05
10 *1424:S *419:27 7.21554e-05
11 *1496:D *419:27 0.000195162
12 *1514:CLK *419:27 4.6437e-05
13 *1514:D *419:27 5.73018e-05
14 *172:108 *419:12 3.04806e-05
15 *278:57 *419:12 0
16 *278:87 *419:27 0
17 *319:84 *419:27 0.000695254
18 *320:10 *419:27 7.70235e-05
19 *336:66 *419:27 0.000100098
20 *336:70 *419:27 2.3529e-05
21 *336:87 *419:27 0.000183145
22 *336:133 *419:27 2.62931e-05
23 *401:16 *419:27 2.54046e-05
24 *401:27 *419:27 0
25 *403:10 *419:27 0.000162809
*RES
1 *1467:Q *419:4 23 
2 *419:4 *419:12 32.0507 
3 *419:12 *1618:A 23 
4 *419:4 *419:27 44.87 
5 *419:27 *1638:A 41.5007 
*END

*D_NET *420 0.00212563
*CONN
*I *1639:A I *D sky130_fd_sc_hd__clkbuf_4
*I *1617:A I *D sky130_fd_sc_hd__dlygate4sd3_1
*I *1468:Q O *D sky130_fd_sc_hd__dfrtp_1
*CAP
1 *1639:A 0
2 *1617:A 0
3 *1468:Q 0.000204912
4 *420:21 0.000853921
5 *420:10 0.00105883
6 *204:10 *420:10 7.96027e-06
7 *334:42 *420:21 0
8 *334:55 *420:10 0
9 *334:55 *420:21 0
10 *411:8 *420:10 0
*RES
1 *1468:Q *420:10 41.0036 
2 *420:10 *1617:A 38 
3 *420:10 *420:21 31.6957 
4 *420:21 *1639:A 23 
*END

*D_NET *421 0.0033545
*CONN
*I *1640:A I *D sky130_fd_sc_hd__clkbuf_4
*I *1615:A I *D sky130_fd_sc_hd__dlygate4sd3_1
*I *1469:Q O *D sky130_fd_sc_hd__dfrtp_1
*CAP
1 *1640:A 0.000472749
2 *1615:A 0.000385854
3 *1469:Q 9.50204e-05
4 *421:10 0.000953624
5 *1615:A *455:10 0.000208564
6 *1615:A *455:25 7.94134e-05
7 *1615:A *485:10 1.27508e-05
8 *421:10 *455:25 5.3304e-05
9 *1232:A *1640:A 7.27085e-05
10 *1313:A *1640:A 9.67842e-05
11 *69:10 *1640:A 3.87132e-05
12 *93:10 *1615:A 1.14452e-05
13 *93:10 *1640:A 0.000169674
14 *93:10 *421:10 9.84794e-05
15 *163:45 *1640:A 0
16 *254:46 *1615:A 0.000166641
17 *254:46 *1640:A 3.47776e-05
18 *254:61 *1640:A 0.000123439
19 *254:74 *1640:A 8.43466e-05
20 *346:16 *1615:A 3.22051e-05
21 *409:8 *1615:A 0.000164003
*RES
1 *1469:Q *421:10 40.0714 
2 *421:10 *1615:A 47.0107 
3 *421:10 *1640:A 48.2329 
*END

*D_NET *422 0.0181253
*CONN
*I *1404:A1 I *D sky130_fd_sc_hd__mux2_1
*I *1440:A1 I *D sky130_fd_sc_hd__mux2_1
*I *1367:A1 I *D sky130_fd_sc_hd__mux2_1
*I *1422:A1 I *D sky130_fd_sc_hd__mux2_1
*I *1331:A1 I *D sky130_fd_sc_hd__mux2_1
*I *1292:A1 I *D sky130_fd_sc_hd__mux2_1
*I *1385:A0 I *D sky130_fd_sc_hd__mux2_1
*I *1349:A1 I *D sky130_fd_sc_hd__mux2_1
*I *1624:X O *D sky130_fd_sc_hd__buf_2
*CAP
1 *1404:A1 0
2 *1440:A1 0.000271586
3 *1367:A1 0
4 *1422:A1 1.52295e-05
5 *1331:A1 0.000297254
6 *1292:A1 0
7 *1385:A0 0
8 *1349:A1 0.000203193
9 *1624:X 0.00111786
10 *422:105 0.000612662
11 *422:92 0.000447384
12 *422:66 0.000733667
13 *422:54 0.000654254
14 *422:50 0.000847129
15 *422:44 0.00107188
16 *422:30 0.00146584
17 *422:14 0.00140245
18 *422:6 0.00179132
19 *1331:A1 *1331:A0 5.56279e-05
20 *1349:A1 *1349:A0 7.53384e-06
21 *1440:A1 *462:8 0
22 *422:6 *437:135 0.000604029
23 *422:14 *1404:A0 2.30292e-05
24 *422:14 *463:8 0
25 *422:30 *1404:A0 4.27353e-05
26 *422:30 *425:47 0.000111852
27 *422:44 *438:69 0.000115997
28 *422:44 *445:8 0
29 *422:44 *455:48 0.000107611
30 *422:44 *455:50 6.25829e-05
31 *422:44 *455:74 0.000375702
32 *422:50 *425:47 0.000794049
33 *422:54 *1292:A0 5.50049e-05
34 *422:66 *1292:A0 1.76557e-05
35 *422:66 *1385:A1 0.000180218
36 *1227:A2 *422:30 0.000114074
37 *1229:A2 *422:30 6.37005e-05
38 *1252:B1 *422:66 0.00032244
39 *1253:A *422:14 9.48318e-05
40 *1254:A1 *422:92 3.81154e-05
41 *1254:B1 *422:30 1.59094e-05
42 *1292:S *1331:A1 4.21281e-05
43 *1292:S *422:54 2.93845e-05
44 *1349:S *1349:A1 3.22465e-05
45 *1373:S *1440:A1 3.53698e-05
46 *1422:S *1422:A1 5.90675e-06
47 *1543:A *422:50 0.000645341
48 *1580:A *422:66 0.000241977
49 *1605:A *422:14 0.00014411
50 *101:8 *422:14 0
51 *133:8 *422:14 0.000113235
52 *165:165 *422:44 5.61888e-05
53 *165:171 *422:30 3.17516e-05
54 *165:179 *422:44 6.48142e-05
55 *222:8 *1331:A1 0.000135547
56 *222:8 *422:54 2.25809e-05
57 *222:8 *422:66 0.00031495
58 *223:10 *422:30 0.000113447
59 *224:10 *422:30 1.3523e-05
60 *224:10 *422:92 0.000273267
61 *224:10 *422:105 0.000652667
62 *242:14 *422:14 0
63 *258:85 *422:44 0
64 *278:65 *1440:A1 0.000132428
65 *288:90 *422:66 7.84439e-05
66 *299:59 *422:14 2.76611e-06
67 *309:95 *1422:A1 5.47983e-06
68 *309:95 *422:92 2.81066e-05
69 *309:95 *422:105 0.000474566
70 *309:105 *422:44 0
71 *328:83 *422:50 0.000165563
72 *334:86 *422:14 0
73 *370:10 *422:30 1.37232e-05
74 *381:10 *422:30 9.84851e-05
75 *415:10 *422:14 2.29192e-05
*RES
1 *1624:X *422:6 40.2964 
2 *422:6 *422:14 44.6243 
3 *422:14 *422:30 42.9879 
4 *422:30 *422:44 42.8636 
5 *422:44 *422:50 41.0614 
6 *422:50 *422:54 2.42357 
7 *422:54 *422:66 13.8371 
8 *422:66 *1349:A1 26.9564 
9 *422:66 *1385:A0 23 
10 *422:54 *1292:A1 23 
11 *422:50 *1331:A1 28.3857 
12 *422:30 *422:92 3.00357 
13 *422:92 *1422:A1 23.4971 
14 *422:92 *422:105 25.2329 
15 *422:105 *1367:A1 38 
16 *422:105 *1440:A1 43.7793 
17 *422:14 *1404:A1 23 
*END

*D_NET *423 0.000667615
*CONN
*I *1614:A I *D sky130_fd_sc_hd__dlygate4sd3_1
*I *1641:A I *D sky130_fd_sc_hd__clkbuf_4
*I *1470:Q O *D sky130_fd_sc_hd__dfrtp_1
*CAP
1 *1614:A 0
2 *1641:A 0.00016826
3 *1470:Q 8.82656e-05
4 *423:8 0.000256526
5 *1641:A *477:12 3.07161e-05
6 *423:8 *477:12 3.26805e-05
7 dout[6] *1641:A 8.53726e-05
8 dout[6] *423:8 5.79413e-06
*RES
1 *1470:Q *423:8 39.9057 
2 *423:8 *1641:A 41.9357 
3 *423:8 *1614:A 38 
*END

*D_NET *424 0.00165078
*CONN
*I *1610:A I *D sky130_fd_sc_hd__dlygate4sd3_1
*I *1642:A I *D sky130_fd_sc_hd__clkbuf_4
*I *1471:Q O *D sky130_fd_sc_hd__dfrtp_1
*CAP
1 *1610:A 0
2 *1642:A 0
3 *1471:Q 0
4 *424:25 0.000258883
5 *424:12 0.000489501
6 *424:4 0.000748385
7 *424:12 *477:36 0
8 *1471:RESET_B *424:12 9.987e-05
9 *46:8 *424:25 0
10 *413:22 *424:25 5.41385e-05
*RES
1 *1471:Q *424:4 23 
2 *424:4 *424:12 38.0786 
3 *424:12 *1642:A 23 
4 *424:4 *424:25 34.7643 
5 *424:25 *1610:A 23 
*END

*D_NET *425 0.0279293
*CONN
*I *1278:A I *D sky130_fd_sc_hd__or2_1
*I *1643:A I *D sky130_fd_sc_hd__clkbuf_4
*I *1270:A2 I *D sky130_fd_sc_hd__a21o_1
*I *1269:Y O *D sky130_fd_sc_hd__nor2_2
*CAP
1 *1278:A 0
2 *1643:A 0
3 *1270:A2 0.000380121
4 *1269:Y 0
5 *425:71 0.00125159
6 *425:67 0.00233735
7 *425:63 0.00124178
8 *425:55 0.000589951
9 *425:47 0.00163378
10 *425:28 0.00199611
11 *425:18 0.00362011
12 *425:4 0.00320398
13 *1270:A2 *1270:B1 1.35999e-05
14 *1270:A2 *431:16 0.000260078
15 *1270:A2 *439:8 0.000303271
16 *1270:A2 *499:63 5.75756e-06
17 *425:18 *437:89 5.37348e-06
18 *425:18 *437:106 0.00012184
19 *425:28 *1357:A1 0.000279084
20 *425:28 *464:10 5.50106e-05
21 *425:28 *508:10 7.12999e-05
22 *425:47 *437:89 6.48049e-05
23 *425:47 *437:112 0.000196319
24 *425:47 *437:122 0.000795875
25 *425:55 *437:122 2.26942e-05
26 *425:63 *437:122 6.12496e-06
27 *425:63 *437:135 0
28 *425:67 *433:10 0.000108436
29 *425:67 *458:10 2.7237e-05
30 *425:71 *433:10 0.00100045
31 dout[3] *425:71 8.15864e-05
32 *1208:A *1270:A2 5.82853e-05
33 *1220:A1 *425:28 0.000259337
34 *1227:A2 *425:47 0.000174324
35 *1228:B2 *425:55 6.42506e-05
36 *1238:A2 *425:18 8.91472e-06
37 *1238:B1 *425:18 2.64616e-05
38 *1278:B *425:55 5.50106e-05
39 *1357:S *425:28 0.000143535
40 *1358:A *425:18 4.47808e-05
41 *1374:A *425:67 3.3577e-05
42 *1413:A *425:28 0.000143543
43 *1483:D *425:18 4.9054e-06
44 *1543:A *425:47 9.31694e-05
45 *1561:A *425:55 6.50853e-05
46 *1562:A *425:28 0.000387289
47 *6:9 *425:71 0.00014196
48 *8:9 *425:71 0.00014196
49 *31:12 *425:67 0.00019063
50 *32:8 *425:67 0.000665349
51 *142:128 *425:47 0
52 *142:132 *425:47 3.87936e-05
53 *142:132 *425:55 0.000527909
54 *172:53 *425:18 0.00016371
55 *172:53 *425:28 0.000470227
56 *172:66 *425:28 1.22822e-05
57 *202:22 *425:47 0
58 *210:12 *425:18 0.000178456
59 *239:8 *425:63 2.79004e-05
60 *245:33 *425:47 0.000452133
61 *245:46 *425:47 0.000285204
62 *254:74 *425:47 0.000169683
63 *254:123 *1270:A2 0.000329205
64 *254:127 *1270:A2 0
65 *263:10 *425:47 0.000309878
66 *283:8 *425:63 8.26672e-05
67 *306:10 *1270:A2 4.41821e-06
68 *319:120 *425:55 0.000170807
69 *328:10 *425:18 5.41385e-05
70 *328:83 *425:47 0.000105876
71 *340:10 *425:18 4.8033e-05
72 *386:12 *425:67 0.000228909
73 *386:25 *425:67 0.000576699
74 *401:6 *425:71 0.000219846
75 *401:8 *425:71 0.000190653
76 *422:30 *425:47 0.000111852
77 *422:50 *425:47 0.000794049
*RES
1 *1269:Y *425:4 23 
2 *425:4 *425:18 31.0093 
3 *425:18 *425:28 45.8229 
4 *425:28 *1270:A2 49.3307 
5 *425:4 *425:47 49.1889 
6 *425:47 *425:55 26.1132 
7 *425:55 *425:63 33.4593 
8 *425:63 *425:67 26.1311 
9 *425:67 *425:71 32.8011 
10 *425:71 *1643:A 23 
11 *425:55 *1278:A 23 
*END

*D_NET *426 0.0077896
*CONN
*I *1644:A I *D sky130_fd_sc_hd__buf_2
*I *1272:A2 I *D sky130_fd_sc_hd__a21o_1
*I *1271:Y O *D sky130_fd_sc_hd__inv_2
*CAP
1 *1644:A 0
2 *1272:A2 3.79819e-05
3 *1271:Y 0.000460418
4 *426:39 0.00208777
5 *426:10 0.00212575
6 *426:8 0.000460418
7 *1272:A2 *1272:B1 5.67058e-05
8 *1272:A2 *1557:A 0.000230604
9 *1272:A2 *429:16 9.6103e-05
10 *426:8 *427:8 0
11 *426:8 *429:16 0
12 *426:8 *514:10 7.03869e-05
13 *426:39 *1397:A1 7.41133e-05
14 *426:39 *1557:A 0.000118783
15 *426:39 *429:16 0.000227965
16 *426:39 *477:36 7.06812e-05
17 *426:39 *488:8 7.13588e-05
18 *1395:S *426:39 0.000906887
19 *1397:S *426:39 0.000100069
20 *1630:A *426:39 0.000100069
21 *28:8 *426:39 0.000329835
22 *37:10 *426:8 0
23 *63:10 *426:8 0
24 *288:38 *426:39 5.3304e-05
25 *296:10 *426:39 0.000110397
*RES
1 *1271:Y *426:8 45.8921 
2 *426:8 *426:10 15 
3 *426:10 *1272:A2 25.5271 
4 *426:10 *426:39 46.8143 
5 *426:39 *1644:A 23 
*END

*D_NET *427 0.00614995
*CONN
*I *1557:A I *D sky130_fd_sc_hd__dlygate4sd3_1
*I *1645:A I *D sky130_fd_sc_hd__clkbuf_4
*I *1462:Q O *D sky130_fd_sc_hd__dfrtp_1
*CAP
1 *1557:A 0.000141011
2 *1645:A 0
3 *1462:Q 0.000109368
4 *427:12 0.00206072
5 *427:10 0.00220174
6 *427:8 0.000109368
7 *1557:A *1272:B1 7.42621e-05
8 *427:8 *429:16 0.000113153
9 *1272:A2 *1557:A 0.000230604
10 *1323:A *427:12 0.000274078
11 *28:8 *1557:A 0.000185434
12 *63:10 *1557:A 9.8971e-06
13 *63:10 *427:12 1.39317e-05
14 *402:6 *427:12 0.000100542
15 *402:29 *427:12 6.8295e-05
16 *413:55 *1557:A 0.000130423
17 *413:55 *427:8 6.63801e-05
18 *413:55 *427:12 0.00014196
19 *426:8 *427:8 0
20 *426:39 *1557:A 0.000118783
*RES
1 *1462:Q *427:8 40.61 
2 *427:8 *427:10 15 
3 *427:10 *427:12 36.83 
4 *427:12 *1645:A 23 
5 *427:10 *1557:A 28.8829 
*END

*D_NET *428 0.00247107
*CONN
*I *1546:A I *D sky130_fd_sc_hd__dlygate4sd3_1
*I *1646:A I *D sky130_fd_sc_hd__buf_2
*I *1463:Q O *D sky130_fd_sc_hd__dfrtp_1
*CAP
1 *1546:A 0.00013637
2 *1646:A 0
3 *1463:Q 0
4 *428:10 0.000832171
5 *428:6 0.000968541
6 *1546:A *431:16 8.79841e-05
7 *428:10 *431:16 4.42225e-05
8 underrun *428:10 8.78597e-05
9 *1197:A *428:10 4.58924e-05
10 *1208:A *428:10 6.67555e-05
11 *1609:A *428:10 0.000111041
12 *1611:A *428:10 9.0236e-05
13 *413:12 *428:10 0
*RES
1 *1463:Q *428:6 38 
2 *428:6 *428:10 33.8086 
3 *428:10 *1646:A 23 
4 *428:6 *1546:A 41.6664 
*END

*D_NET *429 0.00838005
*CONN
*I *1536:A I *D sky130_fd_sc_hd__buf_1
*I *1285:A1 I *D sky130_fd_sc_hd__a21oi_2
*I *1647:A I *D sky130_fd_sc_hd__clkbuf_4
*I *1274:X O *D sky130_fd_sc_hd__dlymetal6s2s_1
*CAP
1 *1536:A 7.58701e-05
2 *1285:A1 9.20048e-05
3 *1647:A 0
4 *1274:X 3.2539e-05
5 *429:25 0.000494889
6 *429:16 0.001284
7 *429:8 0.00164355
8 *1285:A1 *1285:A2 5.68958e-05
9 *1285:A1 *499:63 0.000106671
10 *429:8 *435:50 2.93845e-05
11 *429:16 *1272:B1 0.000187129
12 *429:16 *1345:A_N 0.000188616
13 *429:16 *514:59 0.000320374
14 *429:16 *514:70 0.000133316
15 *429:16 *514:83 5.94125e-05
16 *429:16 *514:100 0.00018475
17 *429:16 *515:115 0
18 *429:25 *1444:A1 0
19 *1272:A2 *429:16 9.6103e-05
20 *1280:C *429:16 0
21 *1280:C *429:25 0
22 *1399:C *429:16 0.000284642
23 *37:10 *429:16 0.00053572
24 *51:10 *429:16 0.000111852
25 *63:10 *429:16 0.000661051
26 *140:21 *429:16 0
27 *165:38 *1285:A1 0.000214518
28 *165:38 *1536:A 0.000199733
29 *176:14 *1285:A1 0.000500964
30 *176:14 *1536:A 0.000364782
31 *256:10 *429:16 0
32 *297:12 *429:16 7.99094e-05
33 *319:12 *429:25 0
34 *413:55 *429:16 0
35 *413:77 *429:16 0.000100247
36 *426:8 *429:16 0
37 *426:39 *429:16 0.000227965
38 *427:8 *429:16 0.000113153
*RES
1 *1274:X *429:8 38.6214 
2 *429:8 *429:16 49.2407 
3 *429:16 *1647:A 23 
4 *429:8 *429:25 20.7793 
5 *429:25 *1285:A1 28.3857 
6 *429:25 *1536:A 26.9564 
*END

*D_NET *430 0.0138059
*CONN
*I *1648:A I *D sky130_fd_sc_hd__clkbuf_4
*I *1286:C I *D sky130_fd_sc_hd__and3b_1
*I *1285:Y O *D sky130_fd_sc_hd__a21oi_2
*CAP
1 *1648:A 0.000549371
2 *1286:C 0
3 *1285:Y 8.18633e-05
4 *430:29 0.002385
5 *430:20 0.000729481
6 *430:14 0.0052686
7 *430:10 0.00278535
8 *430:14 *431:14 6.14503e-06
9 *430:14 *499:37 8.01112e-05
10 *430:14 *499:44 0.000410406
11 *430:14 *499:63 2.73321e-05
12 *430:20 *437:31 1.73399e-05
13 *430:29 *1653:A 0.000169674
14 *430:29 *436:10 0.000221837
15 *1281:A1 *430:10 0.000126188
16 *1286:B *430:20 0
17 *1466:CLK *430:29 0
18 *1469:CLK *430:29 0
19 *1492:CLK *430:29 0
20 *5:21 *430:14 0
21 *29:12 *1648:A 0
22 *67:10 *430:29 7.03766e-05
23 *69:10 *430:29 0.000141879
24 *70:8 *430:29 0.000141888
25 *90:10 *430:29 5.51058e-05
26 *142:40 *430:10 1.00084e-05
27 *142:55 *430:10 0
28 *163:24 *430:29 0
29 *196:8 *430:29 0.000387279
30 *238:35 *430:20 0
31 *238:35 *430:29 0
32 *330:24 *430:29 0.000140684
33 *333:22 *430:29 0
34 *333:24 *430:29 0
35 *334:55 *1648:A 0
36 *334:55 *430:29 0
37 *418:12 *430:29 0
38 *418:14 *430:29 0
*RES
1 *1285:Y *430:10 47.7296 
2 *430:10 *430:14 13.8949 
3 *430:14 *430:20 28.6196 
4 *430:20 *1286:C 23 
5 *430:14 *430:29 40.3929 
6 *430:29 *1648:A 49.0511 
*END

*D_NET *431 0.0168906
*CONN
*I *1649:A I *D sky130_fd_sc_hd__buf_2
*I *1281:X O *D sky130_fd_sc_hd__o21a_1
*CAP
1 *1649:A 0
2 *1281:X 2.37582e-05
3 *431:16 0.00201647
4 *431:14 0.00692392
5 *431:10 0.0049312
6 *431:14 *499:63 0
7 dout[1] *431:16 5.31385e-05
8 *1208:A *431:16 2.05503e-05
9 *1270:A2 *431:16 0.000260078
10 *1281:A1 *431:10 9.85586e-06
11 *1546:A *431:16 8.79841e-05
12 *1592:A *431:16 0.000277705
13 *1606:A *431:16 6.88552e-05
14 *1616:A *431:16 0.00021341
15 *1628:A *431:16 0
16 *1635:A *431:16 0.000338086
17 *39:8 *431:16 5.80963e-05
18 *40:8 *431:16 0.000102365
19 *175:50 *431:14 0.000840079
20 *236:8 *431:16 0
21 *254:113 *431:16 0.000252671
22 *254:123 *431:16 0
23 *306:10 *431:16 4.67055e-05
24 *337:25 *431:16 0.000114083
25 *342:10 *431:16 0.000166387
26 *417:8 *431:16 3.48266e-05
27 *428:10 *431:16 4.42225e-05
28 *430:14 *431:14 6.14503e-06
*RES
1 *1281:X *431:10 46.3211 
2 *431:10 *431:14 18.0165 
3 *431:14 *431:16 51.3818 
4 *431:16 *1649:A 38 
*END

*D_NET *432 0.000189111
*CONN
*I *1650:A I *D sky130_fd_sc_hd__clkbuf_4
*I *1279:X O *D sky130_fd_sc_hd__clkbuf_1
*CAP
1 *1650:A 0
2 *1279:X 7.67287e-05
3 *432:8 7.67287e-05
4 *283:8 *432:8 3.56537e-05
*RES
1 *1279:X *432:8 39.5536 
2 *432:8 *1650:A 38 
*END

*D_NET *433 0.0161047
*CONN
*I *1442:A1 I *D sky130_fd_sc_hd__mux2_1
*I *1369:A1 I *D sky130_fd_sc_hd__mux2_1
*I *1424:A1 I *D sky130_fd_sc_hd__mux2_1
*I *1406:A1 I *D sky130_fd_sc_hd__mux2_1
*I *1387:A0 I *D sky130_fd_sc_hd__mux2_1
*I *1351:A1 I *D sky130_fd_sc_hd__mux2_1
*I *1333:A1 I *D sky130_fd_sc_hd__mux2_1
*I *1294:A1 I *D sky130_fd_sc_hd__mux2_1
*I *1625:X O *D sky130_fd_sc_hd__clkbuf_2
*CAP
1 *1442:A1 0.000611262
2 *1369:A1 0
3 *1424:A1 5.41197e-05
4 *1406:A1 0
5 *1387:A0 0
6 *1351:A1 0.000134577
7 *1333:A1 0
8 *1294:A1 0.000219954
9 *1625:X 0.000472868
10 *433:76 0.000815417
11 *433:63 0.000230676
12 *433:50 0.0011473
13 *433:40 0.00159747
14 *433:22 0.000338139
15 *433:20 0.000465002
16 *433:18 0.000646196
17 *433:16 0.000297521
18 *433:14 0.00091334
19 *433:10 0.000722684
20 *1442:A1 *1442:A0 3.26241e-05
21 *433:14 *434:12 0
22 *433:18 *434:12 0
23 *433:20 *498:8 0.000100625
24 *433:22 *498:8 3.83778e-05
25 *433:76 *500:10 4.6318e-06
26 *1498:CLK *1442:A1 0.000140093
27 *1498:D *1442:A1 1.64354e-05
28 *1638:A *433:10 0.000265565
29 *8:9 *433:10 5.67058e-05
30 *83:8 *433:50 0.00047502
31 *83:8 *433:76 0.000254742
32 *163:86 *433:76 2.00918e-05
33 *172:98 *1294:A1 6.68252e-05
34 *172:98 *433:20 7.41357e-05
35 *172:98 *433:22 4.48731e-05
36 *175:114 *433:14 0.000284697
37 *175:114 *433:16 9.88765e-05
38 *175:114 *433:18 0.00024816
39 *176:77 *433:76 0
40 *211:16 *433:63 0.000199006
41 *217:12 *433:14 0.000217716
42 *217:12 *433:16 0.000110258
43 *217:12 *433:18 0.000670752
44 *217:12 *433:20 0.000206691
45 *248:10 *1294:A1 0.00013757
46 *254:105 *433:20 8.22421e-06
47 *258:85 *1351:A1 0.000182826
48 *258:85 *433:50 0.000339308
49 *258:104 *1294:A1 0
50 *258:104 *433:22 0
51 *278:57 *433:50 8.62876e-05
52 *299:22 *433:63 8.79994e-05
53 *319:84 *433:76 0.000267649
54 *319:104 *1442:A1 5.1574e-05
55 *335:63 *433:63 0.00013499
56 *336:40 *433:76 7.95833e-05
57 *336:99 *1442:A1 0.000132824
58 *339:10 *433:76 3.18969e-05
59 *339:31 *433:20 1.26859e-05
60 *339:31 *433:22 6.7177e-06
61 *355:8 *433:14 1.4471e-05
62 *379:12 *433:18 0.000133553
63 *379:12 *433:20 9.34813e-05
64 *386:25 *433:14 0
65 *401:8 *433:10 0.000489755
66 *401:16 *433:10 0.000314157
67 *419:27 *1424:A1 9.67842e-05
68 *425:67 *433:10 0.000108436
69 *425:71 *433:10 0.00100045
*RES
1 *1625:X *433:10 42.3679 
2 *433:10 *433:14 21.4836 
3 *433:14 *433:16 1.55357 
4 *433:16 *433:18 8.94857 
5 *433:18 *433:20 6.83571 
6 *433:20 *433:22 2.25786 
7 *433:22 *1294:A1 42.7229 
8 *433:22 *1333:A1 38 
9 *433:20 *433:40 15 
10 *433:40 *433:50 41.4964 
11 *433:50 *1351:A1 25.0507 
12 *433:50 *433:63 35.7793 
13 *433:63 *1387:A0 23 
14 *433:40 *433:76 42.3871 
15 *433:76 *1406:A1 23 
16 *433:18 *1424:A1 39.0979 
17 *433:16 *1369:A1 38 
18 *433:14 *1442:A1 46.7207 
*END

*D_NET *434 0.0113935
*CONN
*I *1651:A I *D sky130_fd_sc_hd__clkbuf_4
*I *1536:X O *D sky130_fd_sc_hd__buf_1
*CAP
1 *1651:A 0
2 *1536:X 0.000361932
3 *434:12 0.00228651
4 *434:10 0.00264844
5 *1190:A *434:10 0.000228633
6 *1190:A *434:12 0
7 *1237:A1 *434:12 0.000287084
8 *1243:A2 *434:12 2.11066e-05
9 *1612:A *434:12 0.000130946
10 *57:8 *434:12 0.000363595
11 *165:38 *434:10 0.000206226
12 *165:61 *434:12 0
13 *172:26 *434:12 6.56907e-05
14 *172:98 *434:12 0.000860072
15 *172:108 *434:12 0.000338188
16 *175:114 *434:12 6.8172e-05
17 *176:34 *434:12 2.64191e-05
18 *176:95 *434:12 0.000399139
19 *208:12 *434:12 0.000457425
20 *209:12 *434:12 0.00100535
21 *218:8 *434:12 0.000286534
22 *278:57 *434:12 0
23 *281:8 *434:12 0.000165491
24 *328:10 *434:12 5.97612e-05
25 *328:75 *434:12 5.07273e-05
26 *328:135 *434:12 0.00036385
27 *336:116 *434:12 0.00010565
28 *379:12 *434:12 0.000217765
29 *386:25 *434:12 0.000104802
30 *395:12 *434:12 0.000283959
31 *433:14 *434:12 0
32 *433:18 *434:12 0
*RES
1 *1536:X *434:10 45.3121 
2 *434:10 *434:12 58.9529 
3 *434:12 *1651:A 38 
*END

*D_NET *435 0.0142331
*CONN
*I *1652:A I *D sky130_fd_sc_hd__clkbuf_4
*I *1283:C I *D sky130_fd_sc_hd__and3b_1
*I *1285:A2 I *D sky130_fd_sc_hd__a21oi_2
*I *1282:X O *D sky130_fd_sc_hd__xor2_2
*CAP
1 *1652:A 0
2 *1283:C 0
3 *1285:A2 5.31165e-05
4 *1282:X 0
5 *435:58 0.00148055
6 *435:50 0.00272711
7 *435:31 0.00163701
8 *435:14 0.0020314
9 *435:4 0.00158783
10 *435:31 *437:44 3.00511e-05
11 *435:31 *437:48 6.43401e-05
12 *435:31 *437:81 0.000116629
13 *435:31 *437:152 5.00731e-05
14 *435:58 *488:90 0
15 *435:58 *503:12 0.000116257
16 *1273:A *435:14 0.000144501
17 *1273:A *435:50 1.10658e-05
18 *1273:B *435:50 0.000137622
19 *1274:A *435:50 5.67058e-05
20 *1281:A1 *435:31 0.000416231
21 *1285:A1 *1285:A2 5.68958e-05
22 *1632:A *435:31 5.3304e-05
23 *84:10 *435:31 8.91468e-07
24 *111:8 *435:58 0.000116518
25 *142:40 *435:14 5.25212e-05
26 *152:141 *435:14 0.000132198
27 *165:38 *1285:A2 0.000155736
28 *169:10 *435:58 0
29 *176:14 *1285:A2 2.54635e-05
30 *241:10 *435:14 0.000108352
31 *241:10 *435:31 4.76374e-05
32 *256:10 *435:50 0.00026808
33 *268:75 *435:58 2.16891e-05
34 *268:86 *435:58 0.000253879
35 *278:20 *435:50 0.000719343
36 *278:31 *435:50 0.000314473
37 *286:10 *435:50 9.84851e-05
38 *319:12 *435:50 0.000118847
39 *330:50 *435:31 6.00824e-05
40 *330:58 *435:31 0
41 *368:10 *435:58 0.000165003
42 *368:25 *435:58 0.000773838
43 *429:8 *435:50 2.93845e-05
*RES
1 *1282:X *435:4 23 
2 *435:4 *435:14 22.4157 
3 *435:14 *1285:A2 40.0714 
4 *435:14 *435:31 39.1114 
5 *435:31 *1283:C 23 
6 *435:4 *435:50 41.5764 
7 *435:50 *435:58 43.2957 
8 *435:58 *1652:A 23 
*END

*D_NET *436 0.00449549
*CONN
*I *1653:A I *D sky130_fd_sc_hd__clkbuf_4
*I *1283:B I *D sky130_fd_sc_hd__and3b_1
*I *1276:Y O *D sky130_fd_sc_hd__inv_2
*CAP
1 *1653:A 8.41724e-05
2 *1283:B 0
3 *1276:Y 0.000281073
4 *436:14 0.00131427
5 *436:10 0.00167952
6 *436:14 *437:48 9.69655e-05
7 *436:14 *437:62 4.839e-05
8 *1491:D *436:14 1.35043e-05
9 *34:10 *1653:A 0
10 *163:14 *436:14 0.000210877
11 *163:154 *436:14 0.000319414
12 *242:8 *436:14 5.58003e-05
13 *430:29 *1653:A 0.000169674
14 *430:29 *436:10 0.000221837
*RES
1 *1276:Y *436:10 43.0129 
2 *436:10 *436:14 33.2493 
3 *436:14 *1283:B 23 
4 *436:10 *1653:A 40.2579 
*END

*D_NET *437 0.028882
*CONN
*I *1184:A2 I *D sky130_fd_sc_hd__o211a_1
*I *1654:A I *D sky130_fd_sc_hd__clkbuf_4
*I *1277:B I *D sky130_fd_sc_hd__and2_1
*I *1269:B I *D sky130_fd_sc_hd__nor2_2
*I *1283:A_N I *D sky130_fd_sc_hd__and3b_1
*I *1186:A2 I *D sky130_fd_sc_hd__o21a_4
*I *1182:A2 I *D sky130_fd_sc_hd__o2111a_1
*I *1286:A_N I *D sky130_fd_sc_hd__and3b_1
*I *1179:A2 I *D sky130_fd_sc_hd__o211a_1
*I *1176:Y O *D sky130_fd_sc_hd__xnor2_4
*CAP
1 *1184:A2 0
2 *1654:A 0
3 *1277:B 0
4 *1269:B 0
5 *1283:A_N 0
6 *1186:A2 2.57727e-05
7 *1182:A2 0
8 *1286:A_N 0
9 *1179:A2 2.34823e-05
10 *1176:Y 0
11 *437:152 0.000588478
12 *437:135 0.00115563
13 *437:122 0.00185096
14 *437:112 0.00126863
15 *437:106 0.00141203
16 *437:89 0.00114584
17 *437:81 0.00125507
18 *437:62 0.000504593
19 *437:48 0.000682862
20 *437:44 0.000197942
21 *437:42 0.000404916
22 *437:40 0.000845111
23 *437:31 0.00107702
24 *437:8 0.00150631
25 *437:4 0.00125092
26 *437:8 *1174:B_N 0.000355817
27 *437:8 *1179:C1 5.3304e-05
28 *437:31 *1599:A 3.06338e-05
29 *437:31 *502:10 9.75779e-05
30 *437:40 *1152:B 0
31 *437:40 *512:23 0
32 *437:44 *438:10 0.000142678
33 *437:48 *438:10 7.33916e-05
34 *437:62 *1186:B1 9.66668e-05
35 *437:62 *444:31 0.000270532
36 *437:62 *499:37 3.59733e-05
37 *437:81 *438:10 5.58003e-05
38 *437:122 *1373:A1 0.000232646
39 *437:122 *455:78 0.000814329
40 almost_full *437:135 0.000131304
41 dout[4] *437:135 5.70419e-05
42 *1182:A1 *437:62 1.59914e-05
43 *1186:A1 *1186:A2 9.95589e-06
44 *1186:A1 *437:48 6.81531e-05
45 *1186:A1 *437:62 0.000136026
46 *1228:B2 *437:122 0.00021738
47 *1286:B *437:31 6.62536e-05
48 *1287:A *437:31 0
49 *1317:A *1179:A2 0
50 *1317:A *437:8 6.36307e-05
51 *1317:A *437:31 3.17634e-05
52 *1320:A *437:31 0.000188934
53 *1374:A *437:122 5.50049e-05
54 *1374:A *437:135 7.38076e-05
55 *1473:CLK *437:40 9.1411e-05
56 *1473:CLK *437:62 5.29205e-05
57 *1473:D *437:62 0
58 *1561:A *437:122 0.000141675
59 *1632:A *437:40 0.000349084
60 *1632:A *437:81 1.59094e-05
61 *7:9 *437:135 0.00010018
62 *142:55 *437:152 0.000358411
63 *142:73 *437:62 0.000393291
64 *142:116 *437:89 0.000605144
65 *142:132 *437:122 6.02252e-05
66 *152:118 *437:62 0.000102551
67 *157:103 *437:152 3.57152e-05
68 *158:22 *437:8 5.50049e-05
69 *158:83 *437:40 3.96108e-05
70 *160:12 *437:40 4.81195e-05
71 *162:10 *437:40 0.000156225
72 *163:154 *437:62 0.000229975
73 *165:38 *437:152 0.000398524
74 *165:165 *437:89 5.69096e-05
75 *165:165 *437:112 0.00129168
76 *165:165 *437:122 1.01003e-05
77 *165:165 *437:152 0.000103123
78 *167:10 *437:40 6.50313e-05
79 *168:24 *437:40 0.00119993
80 *222:8 *437:106 0.000397767
81 *239:8 *437:122 8.85189e-05
82 *242:8 *437:48 5.82853e-05
83 *243:8 *437:31 8.85189e-05
84 *245:33 *437:89 0.000172564
85 *245:33 *437:112 6.16439e-05
86 *245:46 *437:112 0.000295347
87 *254:74 *437:112 7.80251e-05
88 *258:56 *437:106 0
89 *263:10 *437:112 0.000344086
90 *283:8 *437:122 0
91 *319:120 *437:122 4.19479e-05
92 *329:14 *437:40 0.000107641
93 *329:105 *437:40 0.000183047
94 *333:108 *437:106 0.000192816
95 *418:14 *437:31 0
96 *422:6 *437:135 0.000604029
97 *425:18 *437:89 5.37348e-06
98 *425:18 *437:106 0.00012184
99 *425:47 *437:89 6.48049e-05
100 *425:47 *437:112 0.000196319
101 *425:47 *437:122 0.000795875
102 *425:55 *437:122 2.26942e-05
103 *425:63 *437:122 6.12496e-06
104 *425:63 *437:135 0
105 *430:20 *437:31 1.73399e-05
106 *435:31 *437:44 3.00511e-05
107 *435:31 *437:48 6.43401e-05
108 *435:31 *437:81 0.000116629
109 *435:31 *437:152 5.00731e-05
110 *436:14 *437:48 9.69655e-05
111 *436:14 *437:62 4.839e-05
*RES
1 *1176:Y *437:4 23 
2 *437:4 *437:8 8.61714 
3 *437:8 *1179:A2 23.4971 
4 *437:8 *437:31 47.7521 
5 *437:31 *1286:A_N 23 
6 *437:4 *437:40 37.33 
7 *437:40 *437:42 15 
8 *437:42 *437:44 1.57429 
9 *437:44 *437:48 4.93 
10 *437:48 *437:62 42.9879 
11 *437:62 *1182:A2 23 
12 *437:48 *1186:A2 23.4971 
13 *437:44 *1283:A_N 23 
14 *437:42 *437:81 6.33857 
15 *437:81 *437:89 38.8657 
16 *437:89 *1269:B 23 
17 *437:89 *437:106 44.6864 
18 *437:106 *437:112 33.6739 
19 *437:112 *437:122 36.4289 
20 *437:122 *1277:B 23 
21 *437:122 *437:135 27.84 
22 *437:135 *1654:A 23 
23 *437:81 *437:152 42.2421 
24 *437:152 *1184:A2 23 
*END

*D_NET *438 0.016762
*CONN
*I *1260:B1 I *D sky130_fd_sc_hd__a22o_1
*I *1215:B1 I *D sky130_fd_sc_hd__a22o_1
*I *1242:B1 I *D sky130_fd_sc_hd__a22o_1
*I *1224:B1 I *D sky130_fd_sc_hd__a22o_1
*I *1251:B1 I *D sky130_fd_sc_hd__a22o_1
*I *1233:B1 I *D sky130_fd_sc_hd__a22o_1
*I *1632:X O *D sky130_fd_sc_hd__clkbuf_2
*CAP
1 *1260:B1 0
2 *1215:B1 0
3 *1242:B1 0
4 *1224:B1 0
5 *1251:B1 0.000169628
6 *1233:B1 2.09288e-05
7 *1632:X 0.000313599
8 *438:104 0.000496838
9 *438:96 0.000704589
10 *438:92 0.000913973
11 *438:75 0.0011921
12 *438:69 0.00176214
13 *438:42 0.00172961
14 *438:23 0.00122993
15 *438:10 0.000941491
16 *438:10 *444:46 3.31127e-05
17 *438:23 *444:46 7.91493e-05
18 *438:42 *455:48 5.50106e-05
19 *438:69 *455:48 0.000459668
20 *438:69 *467:10 0.000129707
21 *438:92 *1294:A0 0.000238395
22 *1224:A1 *438:42 5.50106e-05
23 *1224:A1 *438:69 4.34745e-05
24 *1224:A2 *438:42 1.00765e-05
25 *1242:A2 *438:92 0.000119825
26 *1248:A2 *438:92 0.000132931
27 *1251:A2 *1251:B1 0.000187363
28 *1251:A2 *438:42 8.55549e-05
29 *1383:S *438:104 0
30 *1384:A *438:96 5.79559e-05
31 *1458:CLK *438:42 6.79387e-05
32 *1484:CLK *438:69 0.00028312
33 *1484:D *438:69 5.34647e-06
34 *1564:A *438:69 7.82593e-05
35 *56:8 *438:23 5.56203e-05
36 *105:14 *438:96 7.51783e-05
37 *158:102 *438:42 0.000212905
38 *158:135 *438:75 0.000572939
39 *167:10 *438:10 3.81554e-05
40 *167:25 *438:23 0.000311137
41 *167:38 *438:42 0.000155994
42 *167:65 *438:69 0.000125342
43 *167:65 *438:75 6.63159e-06
44 *167:65 *438:92 1.45836e-05
45 *167:84 *438:104 4.77164e-06
46 *167:101 *438:104 0.00010018
47 *176:77 *438:104 0.00010339
48 *195:18 *438:92 0.000119213
49 *213:10 *438:92 5.5792e-05
50 *219:12 *438:69 6.53578e-05
51 *221:8 *438:23 4.11274e-05
52 *226:14 *438:69 0
53 *227:10 *438:104 0.000142465
54 *242:14 *438:23 0
55 *242:14 *438:42 0
56 *245:85 *438:92 0.000105491
57 *245:102 *438:92 9.50968e-06
58 *245:102 *438:96 0.000583738
59 *248:10 *438:92 0.0001784
60 *258:85 *438:69 0.000578149
61 *278:57 *438:92 3.61602e-05
62 *288:64 *438:10 0.000191157
63 *288:64 *438:23 0.000179702
64 *299:22 *438:69 0
65 *330:16 *1233:B1 1.39431e-05
66 *333:10 *438:42 0.000208552
67 *335:85 *438:104 0.000167632
68 *341:6 *438:69 1.30878e-05
69 *345:20 *438:96 3.97422e-05
70 *363:24 *438:92 2.64616e-05
71 *364:8 *1233:B1 5.50106e-05
72 *365:10 *438:42 0
73 *395:25 *438:92 0.000148786
74 *397:12 *438:42 4.11274e-05
75 *422:44 *438:69 0.000115997
76 *437:44 *438:10 0.000142678
77 *437:48 *438:10 7.33916e-05
78 *437:81 *438:10 5.58003e-05
*RES
1 *1632:X *438:10 44.09 
2 *438:10 *1233:B1 38.6214 
3 *438:10 *438:23 28.8786 
4 *438:23 *1251:B1 26.5007 
5 *438:23 *438:42 41.1443 
6 *438:42 *1224:B1 23 
7 *438:42 *438:69 42.7986 
8 *438:69 *438:75 22.3121 
9 *438:75 *1242:B1 23 
10 *438:75 *438:92 44.9091 
11 *438:92 *438:96 6.88232 
12 *438:96 *438:104 39.86 
13 *438:104 *1215:B1 23 
14 *438:96 *1260:B1 23 
*END

*D_NET *439 0.000985594
*CONN
*I *1270:B1 I *D sky130_fd_sc_hd__a21o_1
*I *1546:X O *D sky130_fd_sc_hd__dlygate4sd3_1
*CAP
1 *1270:B1 0.000124601
2 *1546:X 0.000112177
3 *439:8 0.000236777
4 *1208:A *1270:B1 6.72485e-05
5 *1270:A2 *1270:B1 1.35999e-05
6 *1270:A2 *439:8 0.000303271
7 *38:8 *439:8 9.95004e-05
8 *254:127 *439:8 2.84201e-05
*RES
1 *1546:X *439:8 42.0186 
2 *439:8 *1270:B1 40.5686 
*END

*D_NET *440 0.000417097
*CONN
*I *1272:B1 I *D sky130_fd_sc_hd__a21o_1
*I *1557:X O *D sky130_fd_sc_hd__dlygate4sd3_1
*CAP
1 *1272:B1 4.94999e-05
2 *1557:X 4.94999e-05
3 *1272:A2 *1272:B1 5.67058e-05
4 *1557:A *1272:B1 7.42621e-05
5 *429:16 *1272:B1 0.000187129
*RES
1 *1557:X *1272:B1 48.5479 
*END

*D_NET *441 0.000490398
*CONN
*I *1377:A0 I *D sky130_fd_sc_hd__mux2_1
*I *1568:X O *D sky130_fd_sc_hd__dlygate4sd3_1
*CAP
1 *1377:A0 0
2 *1568:X 0.000128273
3 *441:10 0.000128273
4 *1201:A2 *441:10 8.57577e-05
5 *1201:B1 *441:10 5.1436e-05
6 *166:76 *441:10 9.66585e-05
*RES
1 *1568:X *441:10 40.2993 
2 *441:10 *1377:A0 38 
*END

*D_NET *442 0.00114513
*CONN
*I *1432:A0 I *D sky130_fd_sc_hd__mux2_1
*I *1579:X O *D sky130_fd_sc_hd__dlygate4sd3_1
*CAP
1 *1432:A0 0.000317936
2 *1579:X 4.19191e-05
3 *442:8 0.000359855
4 *1432:A0 *477:83 6.63159e-06
5 *1432:A0 *477:100 5.2253e-05
6 *1211:A2 *1432:A0 7.17698e-05
7 *1211:B1 *1432:A0 3.28357e-06
8 *1432:S *1432:A0 5.58003e-05
9 *165:139 *442:8 8.78864e-05
10 *185:18 *1432:A0 4.66676e-05
11 *383:23 *1432:A0 1.32405e-05
12 *383:23 *442:8 8.78864e-05
*RES
1 *1579:X *442:8 39.2014 
2 *442:8 *1432:A0 43.7793 
*END

*D_NET *443 0.00104318
*CONN
*I *1335:A0 I *D sky130_fd_sc_hd__mux2_1
*I *1590:X O *D sky130_fd_sc_hd__dlygate4sd3_1
*CAP
1 *1335:A0 4.46141e-05
2 *1590:X 0.000129721
3 *443:8 0.000174335
4 *1335:A0 *444:66 5.67058e-05
5 *1335:A0 *444:81 1.32314e-05
6 *5:21 *443:8 0.000193388
7 *206:10 *1335:A0 7.53384e-06
8 *206:10 *443:8 0.000323822
9 *219:24 *1335:A0 1.76557e-05
10 *258:40 *1335:A0 1.89095e-05
11 *258:48 *443:8 6.32688e-05
*RES
1 *1590:X *443:8 42.3707 
2 *443:8 *1335:A0 39.4707 
*END

*D_NET *444 0.0183308
*CONN
*I *1296:A1 I *D sky130_fd_sc_hd__mux2_1
*I *1426:A1 I *D sky130_fd_sc_hd__mux2_1
*I *1408:A1 I *D sky130_fd_sc_hd__mux2_1
*I *1371:A1 I *D sky130_fd_sc_hd__mux2_1
*I *1444:A1 I *D sky130_fd_sc_hd__mux2_1
*I *1335:A1 I *D sky130_fd_sc_hd__mux2_1
*I *1389:A0 I *D sky130_fd_sc_hd__mux2_1
*I *1353:A1 I *D sky130_fd_sc_hd__mux2_1
*I *1626:X O *D sky130_fd_sc_hd__buf_2
*CAP
1 *1296:A1 3.59356e-05
2 *1426:A1 0.000300762
3 *1408:A1 0
4 *1371:A1 0.000257276
5 *1444:A1 0.000528442
6 *1335:A1 0
7 *1389:A0 0
8 *1353:A1 2.91848e-05
9 *1626:X 0.000297466
10 *444:103 0.000300762
11 *444:83 0.000936538
12 *444:81 0.000416199
13 *444:66 0.00128364
14 *444:46 0.00149658
15 *444:31 0.00137215
16 *444:12 0.00213649
17 *444:8 0.001475
18 *1353:A1 *1353:A0 5.82853e-05
19 *1371:A1 *1371:A0 5.82853e-05
20 *444:12 *502:10 0.000169674
21 *444:31 *1353:A0 4.19779e-05
22 *444:46 *1389:A1 0.000184527
23 *444:81 *505:10 2.77955e-05
24 *444:83 *505:10 0.000141879
25 *1182:C1 *444:12 0
26 *1183:A2 *444:12 0
27 *1185:B1_N *444:12 0
28 *1187:A *444:12 0
29 *1234:B1 *444:66 0.000416171
30 *1236:A2 *1426:A1 0.000136743
31 *1324:A *444:12 0.000265935
32 *1335:A0 *444:66 5.67058e-05
33 *1335:A0 *444:81 1.32314e-05
34 *1353:S *444:31 0.000188927
35 *1457:CLK *444:66 7.56417e-05
36 *1566:A *444:31 8.21165e-05
37 *1637:A *444:8 0.000228903
38 *80:10 *444:12 6.6869e-05
39 *108:10 *444:31 0
40 *142:71 *444:31 1.85916e-05
41 *158:83 *444:66 0
42 *158:200 *444:66 0.00044667
43 *159:33 *444:12 0.000621028
44 *160:39 *1444:A1 0.000100398
45 *163:154 *444:31 0.00029191
46 *167:10 *444:46 3.70187e-05
47 *167:25 *444:46 0.000179702
48 *205:12 *444:46 0.000167268
49 *206:10 *444:66 0.000117208
50 *207:12 *1371:A1 0.000179624
51 *207:12 *444:83 0
52 *219:24 *444:31 3.17634e-05
53 *219:24 *444:46 4.2062e-05
54 *219:24 *444:66 1.3279e-05
55 *219:24 *444:81 1.68748e-05
56 *242:14 *444:31 0
57 *244:66 *444:12 0.000235393
58 *244:83 *444:12 6.74097e-05
59 *245:16 *444:66 1.58805e-05
60 *245:20 *1296:A1 0.000139357
61 *245:20 *444:46 9.67842e-05
62 *249:10 *444:66 8.62876e-05
63 *254:8 *444:12 0.000136669
64 *254:29 *444:12 0.000698779
65 *258:40 *444:81 0.00010947
66 *262:8 *444:81 0
67 *262:8 *444:83 0
68 *288:68 *444:46 0.000169595
69 *288:76 *444:31 1.32314e-05
70 *288:76 *444:46 0.00010018
71 *299:14 *1426:A1 0.000115451
72 *299:22 *444:81 0.000166513
73 *299:22 *444:83 1.14452e-05
74 *309:10 *1444:A1 0
75 *309:10 *444:83 0
76 *319:12 *1444:A1 5.75756e-06
77 *323:8 *1444:A1 0
78 *330:16 *1296:A1 4.04206e-05
79 *330:16 *444:46 0.000291211
80 *330:38 *1296:A1 5.50106e-05
81 *348:25 *444:31 0
82 *364:21 *444:46 4.96717e-05
83 *418:14 *444:12 0
84 *429:25 *1444:A1 0
85 *437:62 *444:31 0.000270532
86 *438:10 *444:46 3.31127e-05
87 *438:23 *444:46 7.91493e-05
*RES
1 *1626:X *444:8 42.4329 
2 *444:8 *444:12 47.5421 
3 *444:12 *1353:A1 24.1186 
4 *444:12 *444:31 48.2907 
5 *444:31 *1389:A0 23 
6 *444:31 *444:46 43.2571 
7 *444:46 *444:66 48.6221 
8 *444:66 *1335:A1 23 
9 *444:66 *444:81 19.9507 
10 *444:81 *444:83 2.96214 
11 *444:83 *1444:A1 46.5964 
12 *444:83 *1371:A1 43.3857 
13 *444:81 *444:103 15 
14 *444:103 *1408:A1 23 
15 *444:103 *1426:A1 28.7586 
16 *444:46 *1296:A1 24.5743 
*END

*D_NET *445 0.00100105
*CONN
*I *1428:A0 I *D sky130_fd_sc_hd__mux2_1
*I *1601:X O *D sky130_fd_sc_hd__dlygate4sd3_1
*CAP
1 *1428:A0 8.40509e-05
2 *1601:X 0.0001405
3 *445:8 0.000224551
4 *445:8 *455:78 0.000296035
5 *165:165 *445:8 8.62876e-05
6 *165:179 *445:8 3.28876e-05
7 *299:46 *1428:A0 9.5877e-05
8 *381:10 *445:8 4.08641e-05
9 *422:44 *445:8 0
*RES
1 *1601:X *445:8 42.0186 
2 *445:8 *1428:A0 39.0979 
*END

*D_NET *446 0.000420899
*CONN
*I *1371:A0 I *D sky130_fd_sc_hd__mux2_1
*I *1612:X O *D sky130_fd_sc_hd__dlygate4sd3_1
*CAP
1 *1371:A0 0.000156392
2 *1612:X 0.000156392
3 *1371:A1 *1371:A0 5.82853e-05
4 *278:53 *1371:A0 4.98295e-05
*RES
1 *1612:X *1371:A0 48.5271 
*END

*D_NET *447 0.00107739
*CONN
*I *1444:A0 I *D sky130_fd_sc_hd__mux2_1
*I *1619:X O *D sky130_fd_sc_hd__dlygate4sd3_1
*CAP
1 *1444:A0 0.000243709
2 *1619:X 6.62646e-05
3 *447:8 0.000309974
4 *172:22 *447:8 4.41821e-06
5 *176:14 *1444:A0 0.000367267
6 *309:10 *447:8 8.57577e-05
*RES
1 *1619:X *447:8 39.2014 
2 *447:8 *1444:A0 41.9564 
*END

*D_NET *448 0.00102792
*CONN
*I *1296:A0 I *D sky130_fd_sc_hd__mux2_1
*I *1620:X O *D sky130_fd_sc_hd__dlygate4sd3_1
*CAP
1 *1296:A0 0.00025264
2 *1620:X 4.50246e-05
3 *448:8 0.000297665
4 *1234:B1 *448:8 4.08641e-05
5 *165:165 *448:8 8.62876e-05
6 *205:12 *1296:A0 0.000305437
*RES
1 *1620:X *448:8 39.2014 
2 *448:8 *1296:A0 41.48 
*END

*D_NET *449 0.000384891
*CONN
*I *1375:A0 I *D sky130_fd_sc_hd__mux2_1
*I *1547:X O *D sky130_fd_sc_hd__dlygate4sd3_1
*CAP
1 *1375:A0 0.000148856
2 *1547:X 0.000148856
3 *1375:A0 *1375:A1 2.193e-05
4 *1375:A0 *1448:A1 7.61229e-06
5 *1547:A *1375:A0 5.76359e-05
*RES
1 *1547:X *1375:A0 48.5271 
*END

*D_NET *450 0.000455003
*CONN
*I *1450:A0 I *D sky130_fd_sc_hd__mux2_1
*I *1548:X O *D sky130_fd_sc_hd__dlygate4sd3_1
*CAP
1 *1450:A0 9.84421e-05
2 *1548:X 9.84421e-05
3 *1526:CLK *1450:A0 5.58003e-05
4 *1548:A *1450:A0 0.000113573
5 *176:45 *1450:A0 8.87449e-05
*RES
1 *1548:X *1450:A0 48.5271 
*END

*D_NET *451 0.00102943
*CONN
*I *1331:A0 I *D sky130_fd_sc_hd__mux2_1
*I *1549:X O *D sky130_fd_sc_hd__dlygate4sd3_1
*CAP
1 *1331:A0 0.00012214
2 *1549:X 0.00020641
3 *451:8 0.00032855
4 *1331:A1 *1331:A0 5.56279e-05
5 *222:8 *1331:A0 7.44161e-06
6 *258:56 *1331:A0 1.83408e-05
7 *258:60 *451:8 0.000290917
*RES
1 *1549:X *451:8 42.0186 
2 *451:8 *1331:A0 39.5743 
*END

*D_NET *452 0.00108564
*CONN
*I *1369:A0 I *D sky130_fd_sc_hd__mux2_1
*I *1550:X O *D sky130_fd_sc_hd__dlygate4sd3_1
*CAP
1 *1369:A0 0.000134556
2 *1550:X 0.00018967
3 *452:8 0.000324225
4 *217:12 *452:8 0.000294374
5 *278:75 *1369:A0 4.67488e-05
6 *278:87 *1369:A0 9.98069e-06
7 *355:8 *452:8 8.60837e-05
*RES
1 *1550:X *452:8 42.0186 
2 *452:8 *1369:A0 39.5743 
*END

*D_NET *453 0.000504628
*CONN
*I *1294:A0 I *D sky130_fd_sc_hd__mux2_1
*I *1551:X O *D sky130_fd_sc_hd__dlygate4sd3_1
*CAP
1 *1294:A0 5.25866e-05
2 *1551:X 5.25866e-05
3 *245:85 *1294:A0 8.20567e-05
4 *245:102 *1294:A0 2.33679e-05
5 *395:25 *1294:A0 5.56356e-05
6 *438:92 *1294:A0 0.000238395
*RES
1 *1551:X *1294:A0 49.1486 
*END

*D_NET *454 0.00061685
*CONN
*I *1298:A0 I *D sky130_fd_sc_hd__mux2_1
*I *1552:X O *D sky130_fd_sc_hd__dlygate4sd3_1
*CAP
1 *1298:A0 0
2 *1552:X 0.000152178
3 *454:10 0.000152178
4 *158:121 *454:10 0.000226745
5 *202:22 *454:10 8.57485e-05
*RES
1 *1552:X *454:10 40.7757 
2 *454:10 *1298:A0 38 
*END

*D_NET *455 0.014624
*CONN
*I *1391:A0 I *D sky130_fd_sc_hd__mux2_1
*I *1428:A1 I *D sky130_fd_sc_hd__mux2_1
*I *1373:A1 I *D sky130_fd_sc_hd__mux2_1
*I *1446:A1 I *D sky130_fd_sc_hd__mux2_1
*I *1337:A1 I *D sky130_fd_sc_hd__mux2_1
*I *1298:A1 I *D sky130_fd_sc_hd__mux2_1
*I *1410:A1 I *D sky130_fd_sc_hd__mux2_1
*I *1355:A1 I *D sky130_fd_sc_hd__mux2_1
*I *1627:X O *D sky130_fd_sc_hd__clkbuf_2
*CAP
1 *1391:A0 0
2 *1428:A1 0
3 *1373:A1 0.000280967
4 *1446:A1 0.000210619
5 *1337:A1 0
6 *1298:A1 0.000404336
7 *1410:A1 0
8 *1355:A1 0
9 *1627:X 0.00064048
10 *455:78 0.000854457
11 *455:74 0.00054677
12 *455:50 0.000602629
13 *455:48 0.00129776
14 *455:39 0.000187148
15 *455:33 0.00161953
16 *455:25 0.00102925
17 *455:10 0.00115291
18 *455:10 *485:10 1.13812e-05
19 *455:25 *1391:A1 1.14154e-05
20 *455:25 *485:10 0.000168996
21 *455:33 *473:8 0
22 *455:50 *467:10 0.000111609
23 *1224:A1 *455:48 1.03836e-05
24 *1224:B2 *455:33 0.000151601
25 *1224:B2 *455:48 0.00012377
26 *1228:A2 *1446:A1 1.1258e-05
27 *1228:B2 *1446:A1 2.95423e-05
28 *1391:S *455:33 1.19692e-05
29 *1392:A *455:25 5.79559e-05
30 *1484:CLK *455:39 0
31 *1484:D *455:48 1.64354e-05
32 *1615:A *455:10 0.000208564
33 *1615:A *455:25 7.94134e-05
34 *82:10 *1298:A1 2.45549e-06
35 *93:10 *455:25 2.31687e-05
36 *109:10 *455:25 1.59094e-05
37 *163:45 *455:10 0
38 *165:165 *1298:A1 0.000166049
39 *165:165 *455:50 0.000255576
40 *165:165 *455:74 0.000365559
41 *165:165 *455:78 1.74959e-05
42 *198:6 *1298:A1 2.50118e-05
43 *201:10 *455:78 0.00017044
44 *202:22 *1298:A1 0.000261458
45 *203:12 *455:10 0
46 *203:12 *455:33 0
47 *242:14 *455:33 0
48 *242:14 *455:39 0.00032218
49 *254:82 *455:74 2.79543e-05
50 *258:85 *455:50 0
51 *299:46 *455:74 0.000137651
52 *299:59 *455:39 0
53 *309:105 *455:74 5.3304e-05
54 *334:21 *455:39 0
55 *334:104 *1373:A1 0.000412269
56 *341:18 *1298:A1 0
57 *341:18 *455:50 0
58 *349:8 *455:33 9.8971e-06
59 *357:10 *1373:A1 5.511e-05
60 *381:10 *455:78 1.4471e-05
61 *421:10 *455:25 5.3304e-05
62 *422:44 *455:48 0.000107611
63 *422:44 *455:50 6.25829e-05
64 *422:44 *455:74 0.000375702
65 *437:122 *1373:A1 0.000232646
66 *437:122 *455:78 0.000814329
67 *438:42 *455:48 5.50106e-05
68 *438:69 *455:48 0.000459668
69 *445:8 *455:78 0.000296035
*RES
1 *1627:X *455:10 48.6057 
2 *455:10 *1355:A1 38 
3 *455:10 *455:25 25.0464 
4 *455:25 *455:33 37.4986 
5 *455:33 *455:39 34.7229 
6 *455:39 *1410:A1 23 
7 *455:33 *455:48 28.0086 
8 *455:48 *455:50 3.66643 
9 *455:50 *1298:A1 44.2143 
10 *455:50 *1337:A1 38 
11 *455:48 *455:74 21.6493 
12 *455:74 *455:78 26.0614 
13 *455:78 *1446:A1 41.5214 
14 *455:78 *1373:A1 45.7471 
15 *455:74 *1428:A1 23 
16 *455:25 *1391:A0 23 
*END

*D_NET *456 0.00115691
*CONN
*I *1448:A0 I *D sky130_fd_sc_hd__mux2_1
*I *1553:X O *D sky130_fd_sc_hd__dlygate4sd3_1
*CAP
1 *1448:A0 6.79422e-05
2 *1553:X 0.000363479
3 *456:10 0.000431421
4 *102:8 *456:10 0
5 *134:10 *456:10 0
6 *160:93 *456:10 8.4047e-05
7 *165:61 *456:10 0.000210018
8 *172:26 *456:10 0
9 *268:86 *456:10 0
*RES
1 *1553:X *456:10 44.6493 
2 *456:10 *1448:A0 39.0979 
*END

*D_NET *457 0.000371516
*CONN
*I *1389:A1 I *D sky130_fd_sc_hd__mux2_1
*I *1554:X O *D sky130_fd_sc_hd__dlygate4sd3_1
*CAP
1 *1389:A1 9.34947e-05
2 *1554:X 9.34947e-05
3 *444:46 *1389:A1 0.000184527
*RES
1 *1554:X *1389:A1 48.0507 
*END

*D_NET *458 0.000769829
*CONN
*I *1440:A0 I *D sky130_fd_sc_hd__mux2_1
*I *1555:X O *D sky130_fd_sc_hd__dlygate4sd3_1
*CAP
1 *1440:A0 0
2 *1555:X 0.000363431
3 *458:10 0.000363431
4 *458:10 *489:8 0
5 *1373:S *458:10 1.57303e-05
6 *386:8 *458:10 0
7 *425:67 *458:10 2.7237e-05
*RES
1 *1555:X *458:10 44.1729 
2 *458:10 *1440:A0 38 
*END

*D_NET *459 0.000731458
*CONN
*I *1373:A0 I *D sky130_fd_sc_hd__mux2_1
*I *1556:X O *D sky130_fd_sc_hd__dlygate4sd3_1
*CAP
1 *1373:A0 0
2 *1556:X 0.000239169
3 *459:10 0.000239169
4 *1228:B1 *459:10 0.000232627
5 *1497:CLK *459:10 2.04934e-05
*RES
1 *1556:X *459:10 41.7286 
2 *459:10 *1373:A0 38 
*END

*D_NET *460 0.000477518
*CONN
*I *1452:A0 I *D sky130_fd_sc_hd__mux2_1
*I *1558:X O *D sky130_fd_sc_hd__dlygate4sd3_1
*CAP
1 *1452:A0 5.2217e-05
2 *1558:X 5.2217e-05
3 *1452:A0 *488:108 0.000189343
4 *1452:A0 *488:116 5.56356e-05
5 *319:27 *1452:A0 7.87243e-05
6 *319:38 *1452:A0 4.93812e-05
*RES
1 *1558:X *1452:A0 48.5271 
*END

*D_NET *461 0.000679333
*CONN
*I *1422:A0 I *D sky130_fd_sc_hd__mux2_1
*I *1559:X O *D sky130_fd_sc_hd__dlygate4sd3_1
*CAP
1 *1422:A0 0
2 *1559:X 0.000212685
3 *461:10 0.000212685
4 *1229:A2 *461:10 9.41704e-05
5 *226:14 *461:10 0
6 *378:10 *461:10 0.000159792
*RES
1 *1559:X *461:10 41.3557 
2 *461:10 *1422:A0 38 
*END

*D_NET *462 0.000858846
*CONN
*I *1367:A0 I *D sky130_fd_sc_hd__mux2_1
*I *1560:X O *D sky130_fd_sc_hd__dlygate4sd3_1
*CAP
1 *1367:A0 0.000180429
2 *1560:X 0.000134542
3 *462:8 0.000314972
4 *1440:A1 *462:8 0
5 *225:8 *462:8 0
6 *278:61 *1367:A0 0.000228903
*RES
1 *1560:X *462:8 40.2579 
2 *462:8 *1367:A0 41.9564 
*END

*D_NET *463 0.000824625
*CONN
*I *1446:A0 I *D sky130_fd_sc_hd__mux2_1
*I *1561:X O *D sky130_fd_sc_hd__dlygate4sd3_1
*CAP
1 *1446:A0 0.000120199
2 *1561:X 0.000196999
3 *463:8 0.000317198
4 *101:8 *463:8 0.000190229
5 *422:14 *463:8 0
*RES
1 *1561:X *463:8 42.0186 
2 *463:8 *1446:A0 39.5743 
*END

*D_NET *464 0.00188295
*CONN
*I *1430:A0 I *D sky130_fd_sc_hd__mux2_1
*I *1562:X O *D sky130_fd_sc_hd__dlygate4sd3_1
*CAP
1 *1430:A0 0.000330103
2 *1562:X 0.000152595
3 *464:10 0.000482698
4 *1430:A0 *466:43 1.36806e-05
5 *1218:A2 *1430:A0 5.50106e-05
6 *165:120 *1430:A0 0.000223692
7 *165:135 *1430:A0 5.3304e-05
8 *166:106 *464:10 0.000299187
9 *299:109 *464:10 7.80251e-05
10 *332:86 *464:10 0.000139647
11 *425:28 *464:10 5.50106e-05
*RES
1 *1562:X *464:10 42.64 
2 *464:10 *1430:A0 42.4329 
*END

*D_NET *465 0.00117039
*CONN
*I *1434:A0 I *D sky130_fd_sc_hd__mux2_1
*I *1563:X O *D sky130_fd_sc_hd__dlygate4sd3_1
*CAP
1 *1434:A0 2.85154e-05
2 *1563:X 0.000194935
3 *465:8 0.00022345
4 *1434:A0 *488:26 4.19743e-05
5 *1434:A0 *488:32 5.67058e-05
6 *465:8 *488:32 0
7 *1203:B2 *1434:A0 5.50049e-05
8 *1212:A2 *465:8 0
9 *166:78 *465:8 0
10 *170:18 *1434:A0 0.000187129
11 *178:8 *465:8 0.000354778
12 *384:8 *465:8 2.79004e-05
*RES
1 *1563:X *465:8 43.075 
2 *465:8 *1434:A0 40.0507 
*END

*D_NET *466 0.0130378
*CONN
*I *1339:A1 I *D sky130_fd_sc_hd__mux2_1
*I *1412:A1 I *D sky130_fd_sc_hd__mux2_1
*I *1430:A1 I *D sky130_fd_sc_hd__mux2_1
*I *1393:A0 I *D sky130_fd_sc_hd__mux2_1
*I *1357:A1 I *D sky130_fd_sc_hd__mux2_1
*I *1375:A1 I *D sky130_fd_sc_hd__mux2_1
*I *1448:A1 I *D sky130_fd_sc_hd__mux2_1
*I *1300:A1 I *D sky130_fd_sc_hd__mux2_1
*I *1628:X O *D sky130_fd_sc_hd__clkbuf_2
*CAP
1 *1339:A1 0
2 *1412:A1 3.21884e-05
3 *1430:A1 0
4 *1393:A0 0
5 *1357:A1 0.000165454
6 *1375:A1 3.5833e-05
7 *1448:A1 0.000446211
8 *1300:A1 0.00044456
9 *1628:X 0.000837812
10 *466:73 0.000357588
11 *466:51 0.000603616
12 *466:47 0.000574055
13 *466:43 0.000717055
14 *466:35 0.00107105
15 *466:18 0.00142761
16 *466:10 0.00123871
17 *466:35 *506:14 1.35751e-05
18 *466:35 *508:10 0
19 *1216:B1 *466:35 1.50365e-05
20 *1218:A2 *466:43 4.79688e-05
21 *1357:S *1357:A1 0.000143535
22 *1375:A0 *1375:A1 2.193e-05
23 *1375:A0 *1448:A1 7.61229e-06
24 *1376:A *1448:A1 0.000269396
25 *1412:S *466:43 0.000188934
26 *1430:A0 *466:43 1.36806e-05
27 *1448:S *1448:A1 9.31482e-05
28 *1465:D *1300:A1 1.21972e-05
29 *1465:D *466:18 2.68258e-05
30 *163:112 *466:35 0.000243498
31 *165:82 *466:47 0.000571494
32 *165:120 *466:43 0.000180218
33 *165:120 *466:47 8.6949e-05
34 *165:135 *466:43 4.08664e-05
35 *172:53 *1357:A1 0.000656731
36 *175:63 *466:51 0.000222718
37 *175:63 *466:73 0.000185755
38 *175:74 *466:73 0.000234392
39 *176:64 *466:51 0.000109969
40 *176:64 *466:73 9.27814e-05
41 *176:77 *466:73 0.000122407
42 *191:18 *466:35 0.0001008
43 *192:12 *466:43 6.78519e-05
44 *227:10 *466:18 1.56673e-05
45 *227:16 *466:35 0
46 *228:14 *466:35 0.000122337
47 *258:122 *466:10 0
48 *299:109 *466:35 0
49 *305:10 *1412:A1 5.37348e-06
50 *305:10 *466:35 0.000369584
51 *335:99 *1300:A1 0.000523699
52 *425:28 *1357:A1 0.000279084
*RES
1 *1628:X *466:10 49.9729 
2 *466:10 *466:18 20.8829 
3 *466:18 *1300:A1 29.3386 
4 *466:18 *466:35 43.2364 
5 *466:35 *466:43 8.78286 
6 *466:43 *466:47 22.2914 
7 *466:47 *466:51 17.9621 
8 *466:51 *1448:A1 31.2857 
9 *466:51 *1375:A1 23.6214 
10 *466:47 *466:73 20.7793 
11 *466:73 *1357:A1 30.2914 
12 *466:73 *1393:A0 23 
13 *466:43 *1430:A1 23 
14 *466:35 *1412:A1 23.6214 
15 *466:10 *1339:A1 38 
*END

*D_NET *467 0.000917961
*CONN
*I *1337:A0 I *D sky130_fd_sc_hd__mux2_1
*I *1564:X O *D sky130_fd_sc_hd__dlygate4sd3_1
*CAP
1 *1337:A0 0.00013476
2 *1564:X 0.000164661
3 *467:10 0.000299422
4 *158:135 *1337:A0 2.05042e-05
5 *258:85 *467:10 0
6 *341:6 *467:10 5.72975e-05
7 *341:18 *467:10 0
8 *438:69 *467:10 0.000129707
9 *455:50 *467:10 0.000111609
*RES
1 *1564:X *467:10 41.6043 
2 *467:10 *1337:A0 40.4443 
*END

*D_NET *468 0.000276168
*CONN
*I *1387:A1 I *D sky130_fd_sc_hd__mux2_1
*I *1565:X O *D sky130_fd_sc_hd__dlygate4sd3_1
*CAP
1 *1387:A1 0.000117109
2 *1565:X 0.000117109
3 *288:111 *1387:A1 2.83509e-05
4 *363:14 *1387:A1 1.35999e-05
*RES
1 *1565:X *1387:A1 48.0507 
*END

*D_NET *469 0.000381424
*CONN
*I *1353:A0 I *D sky130_fd_sc_hd__mux2_1
*I *1566:X O *D sky130_fd_sc_hd__dlygate4sd3_1
*CAP
1 *1353:A0 8.9386e-05
2 *1566:X 8.9386e-05
3 *1353:A1 *1353:A0 5.82853e-05
4 *1353:S *1353:A0 0.000102389
5 *444:31 *1353:A0 4.19779e-05
*RES
1 *1566:X *1353:A0 48.5271 
*END

*D_NET *470 0.00104125
*CONN
*I *1347:A0 I *D sky130_fd_sc_hd__mux2_1
*I *1567:X O *D sky130_fd_sc_hd__dlygate4sd3_1
*CAP
1 *1347:A0 9.88014e-05
2 *1567:X 0.000257585
3 *470:8 0.000356386
4 *1260:A1 *470:8 0.00013753
5 *1347:S *1347:A0 2.81066e-05
6 *1383:A0 *1347:A0 5.3304e-05
7 *1597:A *470:8 4.08641e-05
8 *166:135 *470:8 0
9 *401:56 *1347:A0 6.86773e-05
*RES
1 *1567:X *470:8 43.075 
2 *470:8 *1347:A0 40.0507 
*END

*D_NET *471 0.00116016
*CONN
*I *1290:A0 I *D sky130_fd_sc_hd__mux2_1
*I *1569:X O *D sky130_fd_sc_hd__dlygate4sd3_1
*CAP
1 *1290:A0 0.000122413
2 *1569:X 0.000128648
3 *471:8 0.000251061
4 *158:158 *471:8 0.000176875
5 *165:90 *471:8 0.000292401
6 *166:118 *1290:A0 0.000137525
7 *335:106 *471:8 5.1233e-05
*RES
1 *1569:X *471:8 42.0186 
2 *471:8 *1290:A0 39.5743 
*END

*D_NET *472 0.00091676
*CONN
*I *1300:A0 I *D sky130_fd_sc_hd__mux2_1
*I *1570:X O *D sky130_fd_sc_hd__dlygate4sd3_1
*CAP
1 *1300:A0 0
2 *1570:X 0.000279225
3 *472:10 0.000279225
4 *1602:A *472:10 2.93747e-05
5 *166:118 *472:10 0.000163352
6 *309:54 *472:10 0.000165583
*RES
1 *1570:X *472:10 42.785 
2 *472:10 *1300:A0 38 
*END

*D_NET *473 0.000460749
*CONN
*I *1391:A1 I *D sky130_fd_sc_hd__mux2_1
*I *1571:X O *D sky130_fd_sc_hd__dlygate4sd3_1
*CAP
1 *1391:A1 0.000136344
2 *1571:X 6.66531e-05
3 *473:8 0.000202997
4 *242:14 *473:8 4.334e-05
5 *455:25 *1391:A1 1.14154e-05
6 *455:33 *473:8 0
*RES
1 *1571:X *473:8 39.2014 
2 *473:8 *1391:A1 40.5686 
*END

*D_NET *474 0.000547835
*CONN
*I *1357:A0 I *D sky130_fd_sc_hd__mux2_1
*I *1572:X O *D sky130_fd_sc_hd__dlygate4sd3_1
*CAP
1 *1357:A0 0
2 *1572:X 0.000254293
3 *474:10 0.000254293
4 *1553:A *474:10 3.22051e-05
5 *160:93 *474:10 7.04466e-06
*RES
1 *1572:X *474:10 41.8321 
2 *474:10 *1357:A0 38 
*END

*D_NET *475 0.000570419
*CONN
*I *1361:A0 I *D sky130_fd_sc_hd__mux2_1
*I *1573:X O *D sky130_fd_sc_hd__dlygate4sd3_1
*CAP
1 *1361:A0 0.000222894
2 *1573:X 0.000222894
3 *168:38 *1361:A0 0.000124632
*RES
1 *1573:X *1361:A0 49.5214 
*END

*D_NET *476 0.000270636
*CONN
*I *1349:A0 I *D sky130_fd_sc_hd__mux2_1
*I *1574:X O *D sky130_fd_sc_hd__dlygate4sd3_1
*CAP
1 *1349:A0 4.20926e-05
2 *1574:X 6.2867e-05
3 *476:8 0.00010496
4 *1349:A1 *1349:A0 7.53384e-06
5 *1349:S *1349:A0 1.32939e-05
6 *1355:S *476:8 3.98887e-05
*RES
1 *1574:X *476:8 39.2014 
2 *476:8 *1349:A0 38.6214 
*END

*D_NET *477 0.0160793
*CONN
*I *1377:A1 I *D sky130_fd_sc_hd__mux2_1
*I *1450:A1 I *D sky130_fd_sc_hd__mux2_1
*I *1432:A1 I *D sky130_fd_sc_hd__mux2_1
*I *1414:A1 I *D sky130_fd_sc_hd__mux2_1
*I *1341:A1 I *D sky130_fd_sc_hd__mux2_1
*I *1302:A1 I *D sky130_fd_sc_hd__mux2_1
*I *1359:A1 I *D sky130_fd_sc_hd__mux2_1
*I *1395:A0 I *D sky130_fd_sc_hd__mux2_1
*I *1629:X O *D sky130_fd_sc_hd__clkbuf_2
*CAP
1 *1377:A1 0
2 *1450:A1 0
3 *1432:A1 0
4 *1414:A1 0
5 *1341:A1 0
6 *1302:A1 0
7 *1359:A1 3.51722e-05
8 *1395:A0 0
9 *1629:X 0
10 *477:118 0.000580245
11 *477:100 0.0010297
12 *477:83 0.00128793
13 *477:66 0.00153509
14 *477:36 0.000823651
15 *477:26 0.00166422
16 *477:22 0.00125022
17 *477:14 0.000479304
18 *477:12 0.00163913
19 *477:6 0.000908047
20 *477:12 *1341:A0 0.000139352
21 *477:14 *1341:A0 5.56279e-05
22 *477:22 *1341:A0 5.74502e-05
23 *477:22 *488:16 7.34394e-06
24 *477:36 *1395:A1 5.50049e-05
25 *477:36 *495:8 7.8128e-05
26 *477:66 *488:16 0
27 dout[6] *477:12 0.000185616
28 *1198:A1 *477:66 0
29 *1202:A2 *477:83 8.36198e-05
30 *1206:A2 *477:36 3.55936e-05
31 *1207:A2 *477:26 3.09094e-05
32 *1212:A1 *477:12 9.45591e-05
33 *1212:A1 *477:22 0.000158034
34 *1302:S *477:26 0.000126486
35 *1359:S *1359:A1 1.12796e-05
36 *1359:S *477:26 1.84831e-05
37 *1359:S *477:36 1.47795e-05
38 *1395:S *477:36 9.84794e-05
39 *1414:A0 *477:66 5.56279e-05
40 *1432:A0 *477:83 6.63159e-06
41 *1432:A0 *477:100 5.2253e-05
42 *1432:S *477:83 1.61385e-05
43 *1432:S *477:100 7.61229e-06
44 *1433:A *477:100 7.51007e-05
45 *1519:CLK *477:66 0
46 *1587:A *477:12 2.18409e-05
47 *1641:A *477:12 3.07161e-05
48 *166:76 *477:83 0.000141347
49 *179:12 *477:36 0.00016228
50 *185:18 *477:83 1.24376e-05
51 *185:18 *477:100 5.55743e-06
52 *187:8 *477:22 2.04934e-05
53 *252:10 *477:26 0.000539708
54 *254:127 *477:66 0.00115269
55 *268:86 *477:118 0.000235532
56 *285:10 *477:118 0.000169639
57 *299:135 *477:83 2.31622e-05
58 *299:150 *477:66 2.46906e-05
59 *299:150 *477:83 3.18142e-05
60 *309:62 *477:83 2.34077e-05
61 *331:46 *477:36 0
62 *331:133 *477:22 5.62672e-05
63 *351:31 *477:36 6.17437e-06
64 *359:16 *477:118 6.30955e-05
65 *359:24 *477:118 6.5402e-05
66 *367:21 *477:36 0.000167327
67 *399:29 *477:12 6.68378e-05
68 *413:12 *477:12 0.000258728
69 *423:8 *477:12 3.26805e-05
70 *424:12 *477:36 0
71 *426:39 *477:36 7.06812e-05
*RES
1 *1629:X *477:6 38 
2 *477:6 *477:12 34.5957 
3 *477:12 *477:14 0.621429 
4 *477:14 *477:22 36.2143 
5 *477:22 *477:26 12.4286 
6 *477:26 *477:36 46.1986 
7 *477:36 *1395:A0 23 
8 *477:26 *1359:A1 23.8493 
9 *477:22 *1302:A1 23 
10 *477:14 *1341:A1 23 
11 *477:12 *477:66 46.7371 
12 *477:66 *1414:A1 23 
13 *477:66 *477:83 41.5171 
14 *477:83 *1432:A1 23 
15 *477:83 *477:100 9.425 
16 *477:100 *477:118 40.9579 
17 *477:118 *1450:A1 23 
18 *477:100 *1377:A1 23 
*END

*D_NET *478 0.000463345
*CONN
*I *1438:A0 I *D sky130_fd_sc_hd__mux2_1
*I *1575:X O *D sky130_fd_sc_hd__dlygate4sd3_1
*CAP
1 *1438:A0 0.000116311
2 *1575:X 0.000116311
3 *1575:A *1438:A0 0.000230723
*RES
1 *1575:X *1438:A0 48.5271 
*END

*D_NET *479 0.000874297
*CONN
*I *1420:A0 I *D sky130_fd_sc_hd__mux2_1
*I *1576:X O *D sky130_fd_sc_hd__dlygate4sd3_1
*CAP
1 *1420:A0 0.000100522
2 *1576:X 0.000224934
3 *479:8 0.000325456
4 *1245:B1 *1420:A0 2.32004e-05
5 *1263:B1 *479:8 4.71113e-05
6 *232:16 *479:8 0
7 *234:10 *479:8 0
8 *310:10 *479:8 0
9 *377:8 *479:8 5.45887e-05
10 *401:44 *1420:A0 9.84851e-05
*RES
1 *1576:X *479:8 42.0186 
2 *479:8 *1420:A0 39.5743 
*END

*D_NET *480 0.000462904
*CONN
*I *1351:A0 I *D sky130_fd_sc_hd__mux2_1
*I *1577:X O *D sky130_fd_sc_hd__dlygate4sd3_1
*CAP
1 *1351:A0 7.8085e-05
2 *1577:X 7.8085e-05
3 *219:8 *1351:A0 2.63049e-05
4 *258:85 *1351:A0 0.0002263
5 *268:124 *1351:A0 5.41288e-05
*RES
1 *1577:X *1351:A0 48.5271 
*END

*D_NET *481 0.00150946
*CONN
*I *1379:A0 I *D sky130_fd_sc_hd__mux2_1
*I *1578:X O *D sky130_fd_sc_hd__dlygate4sd3_1
*CAP
1 *1379:A0 8.51893e-05
2 *1578:X 0.000336009
3 *481:10 0.000421198
4 *1541:A *1379:A0 5.3304e-05
5 *158:68 *481:10 1.59071e-05
6 *170:12 *481:10 0.000172039
7 *278:20 *1379:A0 9.82009e-05
8 *278:31 *1379:A0 1.56665e-05
9 *319:27 *1379:A0 9.82009e-05
10 *328:36 *481:10 3.47781e-05
11 *328:48 *481:10 0.000178967
*RES
1 *1578:X *481:10 44.525 
2 *481:10 *1379:A0 40.0507 
*END

*D_NET *482 0.000409291
*CONN
*I *1385:A1 I *D sky130_fd_sc_hd__mux2_1
*I *1580:X O *D sky130_fd_sc_hd__dlygate4sd3_1
*CAP
1 *1385:A1 7.29523e-05
2 *1580:X 7.29523e-05
3 *1580:A *1385:A1 5.3304e-05
4 *288:90 *1385:A1 2.98648e-05
5 *422:66 *1385:A1 0.000180218
*RES
1 *1580:X *1385:A1 48.0507 
*END

*D_NET *483 0.0010539
*CONN
*I *1359:A0 I *D sky130_fd_sc_hd__mux2_1
*I *1581:X O *D sky130_fd_sc_hd__dlygate4sd3_1
*CAP
1 *1359:A0 0.000261054
2 *1581:X 6.54151e-05
3 *483:8 0.00032647
4 *1302:S *1359:A0 0.000360966
5 *158:68 *483:8 3.9991e-05
6 *182:10 *483:8 0
*RES
1 *1581:X *483:8 39.2014 
2 *483:8 *1359:A0 41.9564 
*END

*D_NET *484 0.00170452
*CONN
*I *1424:A0 I *D sky130_fd_sc_hd__mux2_1
*I *1582:X O *D sky130_fd_sc_hd__dlygate4sd3_1
*CAP
1 *1424:A0 0.000406597
2 *1582:X 0.000134388
3 *484:8 0.000540985
4 *1514:D *1424:A0 5.96334e-05
5 *115:10 *484:8 0.000183278
6 *302:10 *484:8 0
7 *419:27 *1424:A0 0.000379642
*RES
1 *1582:X *484:8 40.61 
2 *484:8 *1424:A0 45.4986 
*END

*D_NET *485 0.00133106
*CONN
*I *1355:A0 I *D sky130_fd_sc_hd__mux2_1
*I *1583:X O *D sky130_fd_sc_hd__dlygate4sd3_1
*CAP
1 *1355:A0 0
2 *1583:X 0.000501356
3 *485:10 0.000501356
4 *1615:A *485:10 1.27508e-05
5 *93:10 *485:10 4.08641e-05
6 *273:10 *485:10 3.87236e-05
7 *349:8 *485:10 5.56356e-05
8 *455:10 *485:10 1.13812e-05
9 *455:25 *485:10 0.000168996
*RES
1 *1583:X *485:10 45.975 
2 *485:10 *1355:A0 38 
*END

*D_NET *486 0.000822735
*CONN
*I *1343:A0 I *D sky130_fd_sc_hd__mux2_1
*I *1584:X O *D sky130_fd_sc_hd__dlygate4sd3_1
*CAP
1 *1343:A0 7.87784e-05
2 *1584:X 9.86172e-05
3 *486:8 0.000177396
4 *1212:A2 *486:8 0
5 *1341:S *1343:A0 9.45591e-05
6 *1343:S *1343:A0 0
7 *158:68 *486:8 4.48671e-05
8 *186:14 *486:8 0
9 *258:14 *1343:A0 5.70419e-05
10 *351:31 *1343:A0 0.000271476
*RES
1 *1584:X *486:8 39.9057 
2 *486:8 *1343:A0 41.5007 
*END

*D_NET *487 0.000914894
*CONN
*I *1426:A0 I *D sky130_fd_sc_hd__mux2_1
*I *1585:X O *D sky130_fd_sc_hd__dlygate4sd3_1
*CAP
1 *1426:A0 0.000178876
2 *1585:X 4.63418e-05
3 *487:8 0.000225218
4 *1236:A2 *1426:A0 0.000312348
5 *160:93 *1426:A0 2.02517e-05
6 *166:10 *487:8 4.334e-05
7 *209:12 *487:8 8.85189e-05
*RES
1 *1585:X *487:8 39.2014 
2 *487:8 *1426:A0 41.9771 
*END

*D_NET *488 0.0159515
*CONN
*I *1416:A1 I *D sky130_fd_sc_hd__mux2_1
*I *1434:A1 I *D sky130_fd_sc_hd__mux2_1
*I *1452:A1 I *D sky130_fd_sc_hd__mux2_1
*I *1379:A1 I *D sky130_fd_sc_hd__mux2_1
*I *1304:A1 I *D sky130_fd_sc_hd__mux2_1
*I *1397:A0 I *D sky130_fd_sc_hd__mux2_1
*I *1361:A1 I *D sky130_fd_sc_hd__mux2_1
*I *1343:A1 I *D sky130_fd_sc_hd__mux2_1
*I *1630:X O *D sky130_fd_sc_hd__clkbuf_2
*CAP
1 *1416:A1 0.000125476
2 *1434:A1 0
3 *1452:A1 0
4 *1379:A1 0
5 *1304:A1 0
6 *1397:A0 0
7 *1361:A1 7.11972e-05
8 *1343:A1 8.35735e-05
9 *1630:X 0.000133168
10 *488:116 0.000259348
11 *488:108 0.000821232
12 *488:90 0.000668167
13 *488:82 0.00121385
14 *488:61 0.000865375
15 *488:51 0.00113292
16 *488:32 0.000686742
17 *488:26 0.000880686
18 *488:16 0.00176527
19 *488:8 0.00117291
20 *488:82 *1304:A0 0.000187856
21 *488:90 *1304:A0 5.79559e-05
22 *488:90 *503:12 0
23 used[1] *488:90 4.21594e-06
24 *1194:A1 *1361:A1 2.24608e-05
25 *1194:A1 *488:61 1.32832e-05
26 *1194:A1 *488:82 0.000193482
27 *1203:A2 *488:26 6.47916e-05
28 *1203:B2 *488:26 0.000263738
29 *1416:A0 *1416:A1 5.72975e-05
30 *1434:A0 *488:26 4.19743e-05
31 *1434:A0 *488:32 5.67058e-05
32 *1452:A0 *488:108 0.000189343
33 *1452:A0 *488:116 5.56356e-05
34 *1487:CLK *488:51 5.50049e-05
35 *1487:D *488:51 0.000234857
36 *1519:CLK *488:16 0.000138727
37 *1591:A *488:82 1.59909e-05
38 *71:10 *488:16 0.000112396
39 *158:68 *1343:A1 9.88678e-05
40 *158:68 *488:32 4.40504e-05
41 *158:68 *488:51 0.000431341
42 *158:68 *488:61 0.000401208
43 *163:230 *488:16 1.26815e-05
44 *167:138 *488:51 8.00741e-05
45 *167:138 *488:61 0.000326873
46 *168:38 *1361:A1 5.50106e-05
47 *169:10 *488:61 0.000110922
48 *170:18 *488:26 1.4345e-05
49 *170:18 *488:32 0.000120867
50 *179:12 *1343:A1 2.49733e-05
51 *188:10 *488:16 0.000272351
52 *245:132 *488:90 9.03964e-06
53 *253:8 *488:90 0.000119733
54 *254:127 *488:16 0
55 *258:14 *1361:A1 5.3304e-05
56 *266:10 *1343:A1 0.000141879
57 *266:10 *488:32 0.000203416
58 *268:86 *488:108 0.000528149
59 *288:38 *488:90 0.000136486
60 *317:10 *488:32 5.50106e-05
61 *319:27 *488:116 9.51236e-05
62 *319:38 *488:108 5.91055e-05
63 *328:36 *488:116 1.65132e-05
64 *328:48 *488:116 1.68817e-05
65 *331:76 *488:90 0
66 *331:129 *488:16 0.000208362
67 *331:133 *488:16 0.000419674
68 *332:10 *488:108 4.08537e-05
69 *360:14 *488:51 5.50049e-05
70 *360:14 *488:108 4.96264e-05
71 *360:27 *488:32 0
72 *360:27 *488:108 0
73 *392:8 *488:116 8.06804e-06
74 *400:10 *488:82 1.7403e-05
75 *426:39 *488:8 7.13588e-05
76 *435:58 *488:90 0
77 *465:8 *488:32 0
78 *477:22 *488:16 7.34394e-06
79 *477:66 *488:16 0
*RES
1 *1630:X *488:8 40.0507 
2 *488:8 *488:16 36.6879 
3 *488:16 *488:26 11.0614 
4 *488:26 *488:32 21.3179 
5 *488:32 *1343:A1 40.61 
6 *488:32 *488:51 24.3836 
7 *488:51 *488:61 22.3846 
8 *488:61 *1361:A1 39.5639 
9 *488:61 *488:82 24.6839 
10 *488:82 *488:90 42.5114 
11 *488:90 *1397:A0 23 
12 *488:82 *1304:A1 23 
13 *488:51 *488:108 41.1443 
14 *488:108 *488:116 33.8321 
15 *488:116 *1379:A1 23 
16 *488:108 *1452:A1 23 
17 *488:26 *1434:A1 23 
18 *488:16 *1416:A1 24.5743 
*END

*D_NET *489 0.000759475
*CONN
*I *1442:A0 I *D sky130_fd_sc_hd__mux2_1
*I *1586:X O *D sky130_fd_sc_hd__dlygate4sd3_1
*CAP
1 *1442:A0 3.32017e-05
2 *1586:X 0.000288991
3 *489:8 0.000322193
4 *1442:A1 *1442:A0 3.26241e-05
5 *319:104 *1442:A0 5.45644e-05
6 *322:12 *489:8 0
7 *387:27 *489:8 2.79004e-05
8 *458:10 *489:8 0
*RES
1 *1586:X *489:8 43.075 
2 *489:8 *1442:A0 39.0979 
*END

*D_NET *490 0.000596387
*CONN
*I *1341:A0 I *D sky130_fd_sc_hd__mux2_1
*I *1587:X O *D sky130_fd_sc_hd__dlygate4sd3_1
*CAP
1 *1341:A0 5.84913e-05
2 *1587:X 5.84913e-05
3 *1212:A1 *1341:A0 0.000226975
4 *477:12 *1341:A0 0.000139352
5 *477:14 *1341:A0 5.56279e-05
6 *477:22 *1341:A0 5.74502e-05
*RES
1 *1587:X *1341:A0 48.5271 
*END

*D_NET *491 0.000752773
*CONN
*I *1292:A0 I *D sky130_fd_sc_hd__mux2_1
*I *1588:X O *D sky130_fd_sc_hd__dlygate4sd3_1
*CAP
1 *1292:A0 7.2744e-05
2 *1588:X 0.000155998
3 *491:8 0.000228742
4 *142:128 *491:8 3.75401e-06
5 *328:83 *491:8 0.000218873
6 *422:54 *1292:A0 5.50049e-05
7 *422:66 *1292:A0 1.76557e-05
*RES
1 *1588:X *491:8 40.9621 
2 *491:8 *1292:A0 39.0979 
*END

*D_NET *492 0.00136306
*CONN
*I *1302:A0 I *D sky130_fd_sc_hd__mux2_1
*I *1589:X O *D sky130_fd_sc_hd__dlygate4sd3_1
*CAP
1 *1302:A0 0
2 *1589:X 0.000229719
3 *492:6 0.000229719
4 *1213:A0 *492:6 0.000185616
5 *1213:A1 *492:6 0.00044716
6 *1302:S *492:6 9.88259e-05
7 *163:230 *492:6 7.12098e-05
8 *188:10 *492:6 6.63793e-06
9 *331:129 *492:6 9.41704e-05
*RES
1 *1589:X *492:6 29.815 
2 *492:6 *1302:A0 23 
*END

*D_NET *493 0.000473826
*CONN
*I *1304:A0 I *D sky130_fd_sc_hd__mux2_1
*I *1591:X O *D sky130_fd_sc_hd__dlygate4sd3_1
*CAP
1 *1304:A0 5.57437e-05
2 *1591:X 5.57437e-05
3 *1591:A *1304:A0 2.95526e-05
4 *245:132 *1304:A0 7.71946e-05
5 *245:151 *1304:A0 9.77922e-06
6 *488:82 *1304:A0 0.000187856
7 *488:90 *1304:A0 5.79559e-05
*RES
1 *1591:X *1304:A0 48.5271 
*END

*D_NET *494 0.000444291
*CONN
*I *1329:A0 I *D sky130_fd_sc_hd__mux2_1
*I *1592:X O *D sky130_fd_sc_hd__dlygate4sd3_1
*CAP
1 *1329:A0 0.000165049
2 *1592:X 0.000165049
3 *1329:A1 *1329:A0 5.72975e-05
4 *1329:S *1329:A0 5.68958e-05
*RES
1 *1592:X *1329:A0 49.0036 
*END

*D_NET *495 0.000479643
*CONN
*I *1395:A1 I *D sky130_fd_sc_hd__mux2_1
*I *1593:X O *D sky130_fd_sc_hd__dlygate4sd3_1
*CAP
1 *1395:A1 2.86541e-05
2 *1593:X 0.000143218
3 *495:8 0.000171872
4 dout[7] *495:8 2.76611e-06
5 *477:36 *1395:A1 5.50049e-05
6 *477:36 *495:8 7.8128e-05
*RES
1 *1593:X *495:8 40.61 
2 *495:8 *1395:A1 38.6214 
*END

*D_NET *496 0.000469819
*CONN
*I *1339:A0 I *D sky130_fd_sc_hd__mux2_1
*I *1594:X O *D sky130_fd_sc_hd__dlygate4sd3_1
*CAP
1 *1339:A0 0.000118386
2 *1594:X 0.000118386
3 *1221:A1 *1339:A0 0.000233047
*RES
1 *1594:X *1339:A0 48.5271 
*END

*D_NET *497 0.000322721
*CONN
*I *1365:A0 I *D sky130_fd_sc_hd__mux2_1
*I *1595:X O *D sky130_fd_sc_hd__dlygate4sd3_1
*CAP
1 *1365:A0 7.95645e-05
2 *1595:X 7.95645e-05
3 *176:87 *1365:A0 0.000131304
4 *279:10 *1365:A0 3.22879e-05
*RES
1 *1595:X *1365:A0 48.5271 
*END

*D_NET *498 0.00109636
*CONN
*I *1333:A0 I *D sky130_fd_sc_hd__mux2_1
*I *1596:X O *D sky130_fd_sc_hd__dlygate4sd3_1
*CAP
1 *1333:A0 0.000103537
2 *1596:X 0.000161348
3 *498:8 0.000264885
4 *1248:A1 *1333:A0 0.000141052
5 *339:31 *498:8 0.000286534
6 *433:20 *498:8 0.000100625
7 *433:22 *498:8 3.83778e-05
*RES
1 *1596:X *498:8 42.0186 
2 *498:8 *1333:A0 39.5743 
*END

*D_NET *499 0.0215492
*CONN
*I *1186:B1 I *D sky130_fd_sc_hd__o21a_4
*I *1270:A1 I *D sky130_fd_sc_hd__a21o_1
*I *1184:C1 I *D sky130_fd_sc_hd__o211a_1
*I *1182:D1 I *D sky130_fd_sc_hd__o2111a_1
*I *1179:C1 I *D sky130_fd_sc_hd__o211a_1
*I *1631:X O *D sky130_fd_sc_hd__buf_2
*CAP
1 *1186:B1 0.000463755
2 *1270:A1 0
3 *1184:C1 1.02029e-05
4 *1182:D1 0
5 *1179:C1 2.32701e-05
6 *1631:X 0
7 *499:63 0.00494721
8 *499:44 0.00602238
9 *499:37 0.00046669
10 *499:21 0.00153165
11 *499:19 0.000926889
12 *499:8 0.00130183
13 *499:6 0.000815429
14 *499:8 *509:8 4.08641e-05
15 *499:8 *516:20 0
16 *499:8 *517:12 6.18971e-05
17 *1178:B *1186:B1 3.44178e-05
18 *1178:B *499:19 0.000122838
19 *1182:C1 *499:37 6.29656e-05
20 *1186:A1 *1186:B1 4.98398e-05
21 *1191:C *1186:B1 0.000166387
22 *1270:A2 *499:63 5.75756e-06
23 *1285:A1 *499:63 0.000106671
24 *1317:A *1179:C1 5.3304e-05
25 *5:21 *499:37 4.68714e-05
26 *5:21 *499:44 0.000224599
27 *5:21 *499:63 5.20793e-05
28 *47:8 *499:19 9.88575e-05
29 *53:8 *499:8 0
30 *74:10 *1186:B1 8.57485e-05
31 *79:10 *499:8 2.96369e-05
32 *119:8 *499:63 4.11274e-05
33 *142:40 *1184:C1 2.33476e-05
34 *144:54 *499:8 0
35 *152:72 *1186:B1 0.000117247
36 *152:118 *499:37 5.56279e-05
37 *157:10 *499:8 0.000136282
38 *157:10 *499:19 0.0008322
39 *157:45 *1186:B1 0.000157459
40 *157:45 *499:19 0.000255122
41 *157:56 *1186:B1 8.22445e-05
42 *157:103 *1184:C1 1.05658e-05
43 *163:154 *1186:B1 8.24578e-05
44 *165:61 *499:63 0.000335652
45 *166:76 *499:63 0.000120171
46 *176:14 *499:63 0.000143709
47 *244:100 *499:19 0.000222113
48 *254:127 *499:63 0.000194344
49 *268:22 *499:8 4.58494e-05
50 *268:22 *499:19 0.000126922
51 *288:28 *499:8 0
52 *288:64 *499:8 0
53 *306:10 *499:63 0
54 *328:36 *499:63 1.6982e-05
55 *328:113 *499:44 1.98075e-05
56 *413:12 *499:63 7.41781e-05
57 *430:14 *499:37 8.01112e-05
58 *430:14 *499:44 0.000410406
59 *430:14 *499:63 2.73321e-05
60 *431:14 *499:63 0
61 *437:8 *1179:C1 5.3304e-05
62 *437:62 *1186:B1 9.66668e-05
63 *437:62 *499:37 3.59733e-05
*RES
1 *1631:X *499:6 38 
2 *499:6 *499:8 15.9914 
3 *499:8 *1179:C1 38.6214 
4 *499:8 *499:19 14.7589 
5 *499:19 *499:21 8 
6 *499:21 *499:37 28.0351 
7 *499:37 *1182:D1 23 
8 *499:21 *499:44 2.97547 
9 *499:44 *1184:C1 46.3211 
10 *499:44 *499:63 38.2763 
11 *499:63 *1270:A1 23 
12 *499:19 *1186:B1 47.7875 
*END

*D_NET *500 0.00132374
*CONN
*I *1383:A1 I *D sky130_fd_sc_hd__mux2_1
*I *1597:X O *D sky130_fd_sc_hd__dlygate4sd3_1
*CAP
1 *1383:A1 3.70406e-05
2 *1597:X 0.000364709
3 *500:10 0.00040175
4 *1348:A *1383:A1 9.41704e-05
5 *1383:A0 *1383:A1 9.66668e-05
6 *1383:S *500:10 5.80848e-05
7 *105:14 *500:10 0.000127699
8 *163:86 *500:10 1.55671e-05
9 *176:77 *500:10 0
10 *268:101 *500:10 2.3529e-05
11 *268:124 *500:10 3.83778e-05
12 *319:84 *500:10 6.15166e-05
13 *433:76 *500:10 4.6318e-06
*RES
1 *1597:X *500:10 45.0014 
2 *500:10 *1383:A1 39.0979 
*END

*D_NET *501 0.000351941
*CONN
*I *1410:A0 I *D sky130_fd_sc_hd__mux2_1
*I *1598:X O *D sky130_fd_sc_hd__dlygate4sd3_1
*CAP
1 *1410:A0 0.00012588
2 *1598:X 0.00012588
3 *1410:S *1410:A0 0.00010018
*RES
1 *1598:X *1410:A0 48.5271 
*END

*D_NET *502 0.000691019
*CONN
*I *1180:A I *D sky130_fd_sc_hd__xor2_1
*I *1599:X O *D sky130_fd_sc_hd__dlygate4sd3_1
*CAP
1 *1180:A 0
2 *1599:X 0.000127046
3 *502:10 0.000127046
4 *254:29 *502:10 0.000169674
5 *437:31 *502:10 9.75779e-05
6 *444:12 *502:10 0.000169674
*RES
1 *1599:X *502:10 41.3557 
2 *502:10 *1180:A 38 
*END

*D_NET *503 0.00111052
*CONN
*I *1397:A1 I *D sky130_fd_sc_hd__mux2_1
*I *1600:X O *D sky130_fd_sc_hd__dlygate4sd3_1
*CAP
1 *1397:A1 4.62997e-05
2 *1600:X 0.00027936
3 *503:12 0.00032566
4 *1395:S *1397:A1 0.000210879
5 *1397:S *1397:A1 5.79559e-05
6 *426:39 *1397:A1 7.41133e-05
7 *435:58 *503:12 0.000116257
8 *488:90 *503:12 0
*RES
1 *1600:X *503:12 43.4893 
2 *503:12 *1397:A1 40.5479 
*END

*D_NET *504 0.00125612
*CONN
*I *1393:A1 I *D sky130_fd_sc_hd__mux2_1
*I *1602:X O *D sky130_fd_sc_hd__dlygate4sd3_1
*CAP
1 *1393:A1 0.00034665
2 *1602:X 5.94633e-05
3 *504:8 0.000406113
4 *165:90 *504:8 8.62876e-05
5 *172:53 *1393:A1 0.000172171
6 *194:16 *1393:A1 0.000185434
7 *194:16 *504:8 0
*RES
1 *1602:X *504:8 39.2014 
2 *504:8 *1393:A1 43.3857 
*END

*D_NET *505 0.000898174
*CONN
*I *1408:A0 I *D sky130_fd_sc_hd__mux2_1
*I *1603:X O *D sky130_fd_sc_hd__dlygate4sd3_1
*CAP
1 *1408:A0 0
2 *1603:X 0.000247645
3 *505:10 0.000247645
4 *207:12 *505:10 0.000233211
5 *262:8 *505:10 0
6 *372:8 *505:10 0
7 *444:81 *505:10 2.77955e-05
8 *444:83 *505:10 0.000141879
*RES
1 *1603:X *505:10 42.785 
2 *505:10 *1408:A0 38 
*END

*D_NET *506 0.000827624
*CONN
*I *1412:A0 I *D sky130_fd_sc_hd__mux2_1
*I *1604:X O *D sky130_fd_sc_hd__dlygate4sd3_1
*CAP
1 *1412:A0 0
2 *1604:X 0.000321779
3 *506:14 0.000321779
4 *1517:D *506:14 6.17437e-06
5 *1604:A *506:14 1.32939e-05
6 *191:18 *506:14 3.81679e-05
7 *305:10 *506:14 8.62876e-05
8 *374:12 *506:14 2.65663e-05
9 *466:35 *506:14 1.35751e-05
*RES
1 *1604:X *506:14 44.1521 
2 *506:14 *1412:A0 38 
*END

*D_NET *507 0.000607124
*CONN
*I *1404:A0 I *D sky130_fd_sc_hd__mux2_1
*I *1605:X O *D sky130_fd_sc_hd__dlygate4sd3_1
*CAP
1 *1404:A0 0.000184733
2 *1605:X 6.55146e-05
3 *507:8 0.000250248
4 *142:132 *507:8 0
5 *334:86 *507:8 4.08641e-05
6 *422:14 *1404:A0 2.30292e-05
7 *422:30 *1404:A0 4.27353e-05
*RES
1 *1605:X *507:8 39.2014 
2 *507:8 *1404:A0 40.5271 
*END

*D_NET *508 0.000501755
*CONN
*I *1258:A0 I *D sky130_fd_sc_hd__mux2_1
*I *1606:X O *D sky130_fd_sc_hd__dlygate4sd3_1
*CAP
1 *1258:A0 0
2 *1606:X 0.000215228
3 *508:10 0.000215228
4 *425:28 *508:10 7.12999e-05
5 *466:35 *508:10 0
*RES
1 *1606:X *508:10 41.2521 
2 *508:10 *1258:A0 38 
*END

*D_NET *509 0.000804428
*CONN
*I *1161:A I *D sky130_fd_sc_hd__xnor2_1
*I *1607:X O *D sky130_fd_sc_hd__dlygate4sd3_1
*CAP
1 *1161:A 0.000203443
2 *1607:X 6.55146e-05
3 *509:8 0.000268958
4 *145:16 *1161:A 0.000225649
5 *499:8 *509:8 4.08641e-05
*RES
1 *1607:X *509:8 39.2014 
2 *509:8 *1161:A 41.7286 
*END

*D_NET *510 0.00480797
*CONN
*I *1155:A_N I *D sky130_fd_sc_hd__and2b_1
*I *1154:B_N I *D sky130_fd_sc_hd__nor2b_2
*I *1177:A I *D sky130_fd_sc_hd__clkbuf_4
*I *1472:Q O *D sky130_fd_sc_hd__dfrtp_1
*CAP
1 *1155:A_N 0
2 *1154:B_N 0
3 *1177:A 0
4 *1472:Q 9.50641e-05
5 *510:36 0.00051288
6 *510:19 0.000837074
7 *510:12 0.000264282
8 *510:6 0.00068354
9 *510:12 *1152:B 0
10 *510:12 *1174:B_N 6.19696e-05
11 *510:36 *1155:B 9.58714e-05
12 *510:36 *515:44 0.000138727
13 *158:41 *510:6 0.000180212
14 *158:41 *510:19 0.000342591
15 *167:124 *510:19 0.00078694
16 *167:124 *510:36 0.00026666
17 *168:24 *510:12 0.000136486
18 *168:24 *510:36 0.000364122
19 *168:38 *510:36 3.75074e-05
20 *245:16 *510:12 0
21 *329:14 *510:6 4.04598e-06
*RES
1 *1472:Q *510:6 25.0507 
2 *510:6 *510:12 34.7229 
3 *510:12 *1177:A 23 
4 *510:6 *510:19 9.19714 
5 *510:19 *1154:B_N 23 
6 *510:19 *510:36 40.7921 
7 *510:36 *1155:A_N 23 
*END

*D_NET *511 0.00203091
*CONN
*I *1171:A I *D sky130_fd_sc_hd__buf_2
*I *1153:B I *D sky130_fd_sc_hd__xor2_2
*I *1473:Q O *D sky130_fd_sc_hd__dfrtp_1
*CAP
1 *1171:A 7.13825e-05
2 *1153:B 0.000164006
3 *1473:Q 0.000411912
4 *511:10 0.000647301
5 *511:10 *512:92 1.47795e-05
6 *1538:A *1153:B 0.00018335
7 *1538:A *511:10 1.05441e-05
8 *152:12 *1153:B 0
9 *152:12 *1171:A 9.5877e-05
10 *152:12 *511:10 0
11 *152:18 *511:10 7.48414e-05
12 *162:10 *511:10 5.3368e-05
13 *245:16 *1153:B 0
14 *328:113 *511:10 0.000142544
15 *329:109 *1171:A 4.96717e-05
16 *330:10 *511:10 0.000111329
*RES
1 *1473:Q *511:10 45.5193 
2 *511:10 *1153:B 17.61 
3 *511:10 *1171:A 40.0921 
*END

*D_NET *512 0.00939306
*CONN
*I *1199:A I *D sky130_fd_sc_hd__nor3b_4
*I *1200:C I *D sky130_fd_sc_hd__and3b_4
*I *1195:C I *D sky130_fd_sc_hd__and3b_1
*I *1181:A I *D sky130_fd_sc_hd__clkbuf_4
*I *1191:A_N I *D sky130_fd_sc_hd__and3b_4
*I *1192:A I *D sky130_fd_sc_hd__nor3b_2
*I *1174:A I *D sky130_fd_sc_hd__or2b_1
*I *1152:B I *D sky130_fd_sc_hd__xor2_2
*I *1178:A I *D sky130_fd_sc_hd__and3_4
*I *1474:Q O *D sky130_fd_sc_hd__dfrtp_4
*CAP
1 *1199:A 3.34443e-05
2 *1200:C 0
3 *1195:C 0
4 *1181:A 6.53749e-05
5 *1191:A_N 0
6 *1192:A 0
7 *1174:A 0
8 *1152:B 0.000366848
9 *1178:A 0
10 *1474:Q 0.000176623
11 *512:92 0.000138191
12 *512:82 0.000385612
13 *512:75 0.000411312
14 *512:59 0.000198738
15 *512:48 0.000187427
16 *512:44 0.000374131
17 *512:23 0.000732299
18 *512:21 0.000938575
19 *512:12 0.000450394
20 *512:10 0.000176623
21 *1152:B *1152:A 5.55743e-06
22 *1152:B *1174:B_N 0
23 *1152:B *516:53 0.000320097
24 *1178:B *512:21 3.28496e-05
25 *1185:A2 *512:75 1.358e-05
26 *1195:A_N *512:75 9.58828e-05
27 *1195:A_N *512:82 6.70361e-05
28 *48:10 *512:23 0.000212368
29 *48:10 *512:44 0.00018987
30 *142:77 *512:10 0.000242404
31 *152:18 *512:92 0.000205569
32 *152:24 *1199:A 3.7681e-05
33 *152:24 *512:82 2.02872e-05
34 *152:61 *1181:A 0.000272918
35 *157:16 *512:21 4.57742e-05
36 *158:6 *512:21 1.39317e-05
37 *158:83 *512:21 1.85916e-05
38 *160:12 *512:21 6.51477e-06
39 *160:12 *512:44 4.63931e-05
40 *160:12 *512:48 1.39344e-05
41 *160:12 *512:59 3.92853e-05
42 *162:10 *512:92 0.000141352
43 *163:154 *512:10 0.000240173
44 *167:6 *1181:A 0.000142678
45 *167:10 *512:59 8.0612e-06
46 *167:112 *1181:A 0.000142678
47 *168:24 *1152:B 0
48 *171:10 *512:82 1.21972e-05
49 *245:16 *512:92 0.000106754
50 *268:16 *1152:B 0.000234202
51 *288:64 *1152:B 0.000297536
52 *288:64 *512:23 0.000835512
53 *288:64 *512:44 0.000243201
54 *288:64 *512:48 6.94612e-05
55 *288:64 *512:59 0.000229159
56 *329:14 *512:23 6.95768e-05
57 *329:105 *512:23 6.96264e-05
58 *437:40 *1152:B 0
59 *437:40 *512:23 0
60 *510:12 *1152:B 0
61 *511:10 *512:92 1.47795e-05
*RES
1 *1474:Q *512:10 42.4121 
2 *512:10 *512:12 15 
3 *512:12 *1178:A 23 
4 *512:12 *512:21 20.3857 
5 *512:21 *512:23 11.4136 
6 *512:23 *1152:B 25.3054 
7 *512:23 *1174:A 38 
8 *512:21 *512:44 4.01857 
9 *512:44 *512:48 1.47071 
10 *512:48 *1192:A 38 
11 *512:48 *512:59 18.3143 
12 *512:59 *1191:A_N 23 
13 *512:59 *1181:A 26.0036 
14 *512:44 *512:75 17.5271 
15 *512:75 *1195:C 23 
16 *512:75 *512:82 2.52714 
17 *512:82 *512:92 33.625 
18 *512:92 *1200:C 23 
19 *512:82 *1199:A 23.8493 
*END

*D_NET *513 0.00225872
*CONN
*I *1599:A I *D sky130_fd_sc_hd__dlygate4sd3_1
*I *1158:B I *D sky130_fd_sc_hd__xnor2_4
*I *1475:Q O *D sky130_fd_sc_hd__dfrtp_2
*CAP
1 *1599:A 0.000275323
2 *1158:B 0.000602834
3 *1475:Q 0
4 *513:6 0.000878158
5 *1287:A *1599:A 6.07084e-05
6 *244:47 *1158:B 0.000143509
7 *244:51 *1158:B 0.000233367
8 *414:8 *1599:A 3.41894e-05
9 *418:14 *1599:A 0
10 *437:31 *1599:A 3.06338e-05
*RES
1 *1475:Q *513:6 38 
2 *513:6 *1158:B 49.9314 
3 *513:6 *1599:A 44.0071 
*END

*D_NET *514 0.011383
*CONN
*I *1345:B I *D sky130_fd_sc_hd__and3b_1
*I *1418:B I *D sky130_fd_sc_hd__and3b_1
*I *1326:B I *D sky130_fd_sc_hd__nor2_1
*I *1436:A_N I *D sky130_fd_sc_hd__and3b_1
*I *1154:A I *D sky130_fd_sc_hd__nor2b_2
*I *1363:A_N I *D sky130_fd_sc_hd__and3b_1
*I *1155:B I *D sky130_fd_sc_hd__and2b_1
*I *1159:C1 I *D sky130_fd_sc_hd__o2111a_1
*I *1169:B1 I *D sky130_fd_sc_hd__a21oi_1
*I *1166:A I *D sky130_fd_sc_hd__and3_1
*I *1476:Q O *D sky130_fd_sc_hd__dfrtp_4
*CAP
1 *1345:B 0
2 *1418:B 3.88336e-05
3 *1326:B 0
4 *1436:A_N 0
5 *1154:A 0.000138272
6 *1363:A_N 2.32701e-05
7 *1155:B 3.28483e-05
8 *1159:C1 0
9 *1169:B1 0
10 *1166:A 1.13059e-05
11 *1476:Q 0.000468876
12 *514:121 9.14328e-05
13 *514:115 0.000594852
14 *514:100 0.000127485
15 *514:92 0.000652366
16 *514:83 0.000226755
17 *514:70 0.000117909
18 *514:59 0.000456969
19 *514:53 0.000644564
20 *514:42 0.00028616
21 *514:16 6.9056e-05
22 *514:14 0.000635944
23 *514:10 0.00104781
24 *514:42 *516:67 5.5792e-05
25 *514:59 *1345:A_N 5.58003e-05
26 *514:100 *1345:A_N 6.48142e-05
27 *514:100 *515:65 2.97675e-05
28 *514:115 *1363:C 2.93747e-05
29 *514:115 *515:115 6.7177e-06
30 *514:121 *515:115 7.81176e-05
31 *1157:A *1154:A 0.000321267
32 *1159:D1 *514:42 0.000539429
33 *1166:B *1166:A 2.07484e-05
34 *1166:B *514:16 2.69729e-05
35 *1271:A *514:14 0.000187363
36 *1327:B *514:100 1.27263e-05
37 *1327:B *514:115 0.00018383
38 *1345:C *514:53 3.34276e-06
39 *1345:C *514:59 1.24362e-05
40 *1399:C *514:59 5.61255e-06
41 *1400:A *514:100 5.3304e-05
42 *37:10 *514:10 0
43 *142:8 *1154:A 2.32101e-05
44 *148:27 *1166:A 5.79559e-05
45 *148:27 *514:16 0.000144494
46 *148:27 *514:42 3.46013e-05
47 *148:34 *514:14 0.000295035
48 *148:34 *514:16 5.58003e-05
49 *158:45 *1154:A 0.000398768
50 *158:45 *1363:A_N 5.3304e-05
51 *158:45 *514:92 8.34394e-05
52 *158:45 *514:115 0.000166987
53 *167:124 *1154:A 6.90217e-05
54 *167:124 *1363:A_N 5.3304e-05
55 *168:38 *1155:B 9.58714e-05
56 *245:132 *514:42 0.000413315
57 *255:8 *514:53 3.88629e-05
58 *256:10 *514:115 8.85189e-05
59 *258:14 *514:115 0
60 *258:40 *514:115 0
61 *268:16 *514:53 6.10998e-06
62 *268:16 *514:59 6.35485e-06
63 *297:12 *514:59 0.000346141
64 *297:12 *514:70 0.000125413
65 *297:12 *514:83 5.01986e-05
66 *297:42 *514:115 0.00014786
67 *298:12 *1418:B 2.4754e-05
68 *298:12 *514:100 5.3304e-05
69 *298:12 *514:115 6.82514e-05
70 *308:10 *514:121 7.81176e-05
71 *413:55 *514:42 0.000163102
72 *413:77 *514:16 2.47128e-05
73 *426:8 *514:10 7.03869e-05
74 *429:16 *514:59 0.000320374
75 *429:16 *514:70 0.000133316
76 *429:16 *514:83 5.94125e-05
77 *429:16 *514:100 0.00018475
78 *510:36 *1155:B 9.58714e-05
*RES
1 *1476:Q *514:10 46.7 
2 *514:10 *514:14 20.3857 
3 *514:14 *514:16 2.05071 
4 *514:16 *1166:A 23.6214 
5 *514:16 *1169:B1 23 
6 *514:14 *514:42 40.2121 
7 *514:42 *1159:C1 23 
8 *514:10 *514:53 19.9921 
9 *514:53 *514:59 22.3743 
10 *514:59 *1155:B 39.0979 
11 *514:59 *514:70 1.90571 
12 *514:70 *1363:A_N 38.6214 
13 *514:70 *514:83 15.8493 
14 *514:83 *1154:A 28.3857 
15 *514:83 *514:92 1.09786 
16 *514:92 *514:100 33.2314 
17 *514:100 *1436:A_N 23 
18 *514:92 *514:115 38.2443 
19 *514:115 *514:121 32.2579 
20 *514:121 *1326:B 23 
21 *514:115 *1418:B 23.6214 
22 *514:53 *1345:B 23 
*END

*D_NET *515 0.0104438
*CONN
*I *1153:A I *D sky130_fd_sc_hd__xor2_2
*I *1326:A I *D sky130_fd_sc_hd__nor2_1
*I *1418:A_N I *D sky130_fd_sc_hd__and3b_1
*I *1436:C I *D sky130_fd_sc_hd__and3b_1
*I *1363:C I *D sky130_fd_sc_hd__and3b_1
*I *1345:A_N I *D sky130_fd_sc_hd__and3b_1
*I *1172:B_N I *D sky130_fd_sc_hd__or2b_1
*I *1159:B1 I *D sky130_fd_sc_hd__o2111a_1
*I *1167:A I *D sky130_fd_sc_hd__nor2_1
*I *1477:Q O *D sky130_fd_sc_hd__dfrtp_4
*CAP
1 *1153:A 0.000408301
2 *1326:A 0
3 *1418:A_N 0
4 *1436:C 0
5 *1363:C 4.88336e-05
6 *1345:A_N 0.000410362
7 *1172:B_N 0
8 *1159:B1 0
9 *1167:A 0
10 *1477:Q 0.000333377
11 *515:115 0.000195152
12 *515:102 0.000298436
13 *515:91 0.000144272
14 *515:65 0.000516856
15 *515:61 0.000510018
16 *515:50 0.000474615
17 *515:44 0.00106338
18 *515:30 0.000182809
19 *515:18 0.000345357
20 *515:14 0.00108776
21 *1156:D *515:50 0.000102389
22 *1156:D *515:61 0.000177104
23 *1159:A1 *515:44 0.000267401
24 *1159:D1 *515:18 0.000231289
25 *1273:A *1153:A 6.97001e-05
26 *1282:A *1153:A 4.00259e-06
27 *1282:B *1153:A 0.000100805
28 *1327:B *1345:A_N 5.22659e-05
29 *1327:B *515:65 8.04817e-05
30 *1363:B *1345:A_N 8.15327e-05
31 *1399:C *1345:A_N 2.6373e-05
32 *1400:A *515:61 0.000345311
33 *1400:A *515:91 5.3304e-05
34 *1400:A *515:102 5.15762e-05
35 *1476:CLK *515:14 0.000233367
36 *1476:D *515:14 0.000123889
37 *52:12 *515:30 2.67971e-05
38 *138:30 *1153:A 2.63049e-05
39 *140:8 *515:44 0
40 *140:21 *515:44 0
41 *142:10 *515:44 0.000440258
42 *142:40 *1153:A 2.34364e-05
43 *142:40 *515:44 0.000163352
44 *144:46 *515:30 1.9054e-05
45 *148:12 *515:14 8.57485e-05
46 *148:12 *515:44 0.00023663
47 *149:16 *515:30 1.94284e-05
48 *149:31 *515:14 0.000166513
49 *152:141 *1153:A 0.000114083
50 *158:41 *515:44 3.87221e-06
51 *244:130 *515:14 4.03799e-05
52 *244:130 *515:30 8.7741e-06
53 *255:8 *1345:A_N 1.97402e-05
54 *255:19 *1345:A_N 7.32335e-05
55 *256:10 *515:115 0
56 *258:40 *515:115 0
57 *268:16 *1345:A_N 9.98069e-06
58 *297:42 *515:115 5.94125e-05
59 *298:12 *515:102 0.000105269
60 *298:12 *515:115 5.3304e-05
61 *318:14 *515:102 9.34177e-05
62 *318:14 *515:115 4.2573e-05
63 *413:55 *515:14 0
64 *429:16 *1345:A_N 0.000188616
65 *429:16 *515:115 0
66 *510:36 *515:44 0.000138727
67 *514:59 *1345:A_N 5.58003e-05
68 *514:100 *1345:A_N 6.48142e-05
69 *514:100 *515:65 2.97675e-05
70 *514:115 *1363:C 2.93747e-05
71 *514:115 *515:115 6.7177e-06
72 *514:121 *515:115 7.81176e-05
*RES
1 *1477:Q *515:14 46.3686 
2 *515:14 *515:18 17.5271 
3 *515:18 *515:30 33.77 
4 *515:30 *1167:A 23 
5 *515:18 *1159:B1 23 
6 *515:14 *515:44 13.0914 
7 *515:44 *515:50 16.595 
8 *515:50 *1172:B_N 23 
9 *515:50 *515:61 7.33286 
10 *515:61 *515:65 16.2014 
11 *515:65 *1345:A_N 46.5757 
12 *515:65 *1363:C 38.6214 
13 *515:61 *515:91 0.621429 
14 *515:91 *1436:C 23 
15 *515:91 *515:102 2.56857 
16 *515:102 *1418:A_N 23 
17 *515:102 *515:115 33.9357 
18 *515:115 *1326:A 23 
19 *515:44 *1153:A 46.0164 
*END

*D_NET *516 0.00797802
*CONN
*I *1174:B_N I *D sky130_fd_sc_hd__or2b_1
*I *1152:A I *D sky130_fd_sc_hd__xor2_2
*I *1399:A I *D sky130_fd_sc_hd__and4_1
*I *1325:A_N I *D sky130_fd_sc_hd__and4b_1
*I *1160:A I *D sky130_fd_sc_hd__nand2_2
*I *1381:A I *D sky130_fd_sc_hd__or3b_1
*I *1162:A I *D sky130_fd_sc_hd__or2_1
*I *1478:Q O *D sky130_fd_sc_hd__dfrtp_4
*CAP
1 *1174:B_N 0.000355142
2 *1152:A 2.85653e-05
3 *1399:A 0
4 *1325:A_N 0
5 *1160:A 0
6 *1381:A 4.32359e-05
7 *1162:A 0
8 *1478:Q 8.3566e-05
9 *516:67 0.000190626
10 *516:59 0.00103014
11 *516:53 0.00106321
12 *516:49 0.000761724
13 *516:40 0.000315207
14 *516:29 0.000274773
15 *516:20 0.000386864
16 *516:6 0.000598208
17 *1152:B *1152:A 5.55743e-06
18 *1152:B *1174:B_N 0
19 *1152:B *516:53 0.000320097
20 *1159:D1 *516:67 1.41129e-05
21 *1164:A *516:20 2.93747e-05
22 *1165:A *516:59 1.16652e-05
23 *1165:B *516:59 0.000146789
24 *1382:A *1381:A 6.17437e-06
25 *1382:A *516:20 0
26 *1399:B *516:67 7.42423e-05
27 *1399:D *516:59 0.00014375
28 *1478:CLK *516:20 5.12328e-05
29 *1478:CLK *516:29 0
30 *146:10 *516:40 0.000166413
31 *146:10 *516:49 0.000191878
32 *147:8 *516:29 1.01436e-05
33 *147:8 *516:40 0.000227972
34 *147:8 *516:49 0.000127662
35 *148:6 *516:59 5.3304e-05
36 *155:8 *1174:B_N 7.88828e-05
37 *244:8 *516:6 6.17437e-06
38 *244:21 *516:29 5.0135e-05
39 *244:21 *516:40 2.36844e-05
40 *245:132 *516:67 0.000141355
41 *268:16 *1152:A 2.10502e-05
42 *268:16 *516:53 7.64059e-06
43 *268:16 *516:59 1.43651e-05
44 *288:28 *516:6 3.40181e-05
45 *288:28 *516:20 0.000261223
46 *288:28 *516:29 0
47 *329:62 *1381:A 9.84851e-05
48 *413:36 *516:67 5.58003e-05
49 *437:8 *1174:B_N 0.000355817
50 *499:8 *516:20 0
51 *510:12 *1174:B_N 6.19696e-05
52 *514:42 *516:67 5.5792e-05
*RES
1 *1478:Q *516:6 24.5743 
2 *516:6 *516:20 38.1821 
3 *516:20 *1162:A 23 
4 *516:6 *516:29 17.2579 
5 *516:29 *1381:A 39.0979 
6 *516:29 *516:40 3.31429 
7 *516:40 *1160:A 38 
8 *516:40 *516:49 5.075 
9 *516:49 *516:53 19.4329 
10 *516:53 *516:59 12.0971 
11 *516:59 *516:67 33.8321 
12 *516:67 *1325:A_N 23 
13 *516:59 *1399:A 23 
14 *516:53 *1152:A 24.1186 
15 *516:49 *1174:B_N 45.4157 
*END

*D_NET *517 0.00114132
*CONN
*I *1607:A I *D sky130_fd_sc_hd__dlygate4sd3_1
*I *1158:A I *D sky130_fd_sc_hd__xnor2_4
*I *1479:Q O *D sky130_fd_sc_hd__dfrtp_2
*CAP
1 *1607:A 0.000124523
2 *1158:A 0
3 *1479:Q 5.31639e-05
4 *517:12 0.00013934
5 *517:6 0.000317027
6 *329:41 *1607:A 0.000301719
7 *329:41 *517:6 0.000143655
8 *499:8 *517:12 6.18971e-05
*RES
1 *1479:Q *517:6 24.5743 
2 *517:6 *517:12 32.9621 
3 *517:12 *1158:A 23 
4 *517:6 *1607:A 26.48 
*END
